 # Version information for this restart file 
 # current date 2011-02-04 21:43:14.903
 # current working dir /homes/sp/teo/My_Exercises/UREA/Runs/RUN01_EQUIL_QMMM
 # Program compiled at                              Wed Feb  2 18:55:22 CET 2011
 # Program compiled on                                                 bladeppc7
 # Program compiled for                                           Linux-ppc7-xlf
 # Last CVS entry                     cp2k_info.F/1.525/Wed Feb  2 17:40:21 2011
 &GLOBAL
   PRINT_LEVEL  LOW
   PROJECT_NAME UREA-ZW
   RUN_TYPE  MD
 &END GLOBAL
 &MOTION
   &MD
     ENSEMBLE  NVT
     STEPS            5000
     TIMESTEP     4.9999999999999994E-01
     STEP_START_VAL            5000
     TIME_START_VAL     2.4999999999997858E+03
     ECONS_START_VAL     0.0000000000000000E+00
     TEMPERATURE     2.9800000000000000E+02
     &THERMOSTAT
       TYPE  CSVR
       REGION  MOLECULE
       &CSVR
         TIMECON     4.9999999999999993E+01
         &THERMOSTAT_ENERGY
               3.7014971979647683E-02
               2.4119374622393022E-02
              -8.9916137912842437E-03
              -8.7875545302982770E-03
               9.2051074064596096E-03
              -8.2198849563574535E-03
               8.1943634789108828E-03
              -1.5443641634203378E-02
               4.7299996171907485E-03
               1.5598367419632669E-03
               1.2684697786333188E-02
               2.5179199332180883E-03
              -2.3627268081098107E-03
              -9.4897038126596119E-03
              -7.5990877455685817E-03
               2.0205035862365828E-02
              -2.4307976619948840E-03
               6.6981524973275426E-04
               6.1465516894652714E-03
              -4.7019244250559892E-04
              -2.0615656606546545E-02
               1.3278856887895185E-03
               2.2530524142599377E-03
               1.1132810859157832E-02
              -1.6205006736742323E-03
               2.9366211121314982E-02
              -6.1749229798203388E-03
               3.3156695402673450E-03
               1.4097210607765035E-03
               6.7507838795136527E-03
               6.8932972284239287E-03
               9.4770059732042044E-04
               7.6745719777303288E-03
              -1.3459696844505237E-02
              -5.3213569415911247E-03
               1.1026008027460642E-02
              -9.9103065643474340E-03
               5.7616598615237895E-03
              -1.3151838546288467E-02
              -7.6467589487994661E-03
               5.1185846794740385E-03
              -6.2363944569911022E-03
              -8.2261505466014705E-03
              -1.3114436610872408E-02
              -7.5169938873737843E-03
              -9.5636449953648631E-03
              -9.7123578743359695E-03
               8.6722374407537106E-03
              -3.4398202411007358E-03
               1.3583508033347801E-02
              -1.0414279930330710E-02
               1.8071531947345110E-02
              -5.4671097255836031E-03
               1.3694356452267957E-02
               4.8303507590334478E-03
               1.3933087431398539E-02
              -1.2168503778037385E-02
               1.0840483652914748E-02
               8.6399229908043582E-03
              -5.2370777204943826E-03
               9.1076587755180884E-03
               9.5466366539403869E-03
               1.4303273210725482E-03
               1.2092149283511175E-03
               1.7121310395831280E-03
              -1.0881497274077676E-02
              -2.7368813925044665E-02
               5.3304571851376182E-03
               9.9328050746982331E-03
              -1.5909934414555444E-03
              -4.4992377612956538E-03
               9.9450096720476167E-03
               4.1277320606060118E-03
              -1.6142436605043353E-03
              -2.9108987984230407E-04
               1.5852181746867583E-03
              -9.3060945683060593E-03
              -1.7576179815296439E-02
               5.3991834319135025E-03
              -1.1704313224521128E-02
              -2.0121856695941579E-02
               3.7197317135422470E-03
               1.4300946449800735E-03
               1.7841512701677865E-02
               3.9393928079551731E-03
              -6.3350768216385378E-04
              -2.4622910286940077E-02
              -1.1513497235449872E-02
               3.1525573304526967E-02
              -1.6670610352740058E-02
               1.2067970161614188E-02
               9.3408977638794848E-03
              -9.7230368146844059E-03
               1.8674946899592542E-03
               7.0522491539428290E-03
               1.2024969464715252E-04
               1.6500924668684292E-02
              -8.2536650709422489E-03
               3.6794506913070939E-03
              -1.4250126474024405E-02
               4.8384648057691595E-04
              -4.8239168742279619E-03
               9.1652218123767573E-03
               1.4737409330997639E-02
               6.8693105444932300E-03
              -1.0489949527741167E-02
               1.4837113560465532E-02
              -4.8201093253359521E-03
              -6.9725479831994619E-03
              -3.6407089652448132E-03
              -9.5327769978576764E-03
              -9.0046750029029298E-03
               5.5189636867200987E-05
              -1.1987463605024418E-02
               6.6647446536533981E-03
               1.8269906224964226E-03
               1.0141665793315956E-02
               1.6323864466994933E-02
               1.6998062540796111E-02
               7.0016282404741035E-03
              -4.8990015756250997E-03
               1.2731089575543941E-03
               2.6156200885377769E-03
               4.7213030103842729E-03
               2.0376625821873482E-03
              -9.3751321868109621E-03
              -5.3989529701446949E-03
               3.6901799424622411E-03
               1.0377922874214823E-02
               1.1361004400135932E-02
              -1.0716821985269384E-03
              -1.2125293038970230E-02
              -5.3522798219882472E-03
              -5.6881263403210005E-03
               1.0129633735271617E-02
               1.1411611336005847E-02
              -2.2591706565163877E-02
               2.6343516853373321E-03
              -1.8580188091498688E-02
               1.2635905263471466E-04
              -4.7054092791062813E-03
              -1.5226000640569415E-02
               1.4258105918944740E-02
              -1.6234312153863027E-02
              -2.8018078940858972E-03
              -1.0650827819030418E-02
               2.0114913429617104E-02
               7.8509290464751080E-03
               1.5445487786265033E-03
              -1.2057894047535938E-02
               1.3807778063110595E-02
               2.9139930296510192E-03
               1.2828485515267458E-02
              -1.3717698879025974E-02
              -3.8808150184306747E-03
              -8.3544874277047265E-04
               2.2346929761522579E-03
              -2.9999058172527370E-03
              -4.7543064107194149E-03
               1.5979390498193337E-02
              -2.5100667446947576E-02
               2.1906372510492444E-03
               2.6426062085148339E-03
              -1.1850968897963419E-02
               1.6849579210666114E-03
               1.2460236699190485E-02
              -9.2648554104704886E-04
              -2.3347128047223165E-02
               2.1538259845289603E-02
              -9.2963488088401922E-03
               1.2919304257472872E-02
              -1.0748889735394593E-02
              -1.7675454868541857E-02
              -4.3003425023324486E-03
              -7.4195679611973857E-03
              -6.2480143266289163E-03
               2.2949085590861628E-02
               8.0178439918893625E-03
               2.5013167950285378E-03
               5.0686512044162604E-03
              -1.2659402959654970E-03
               5.5840865422414603E-03
              -2.2080225212067206E-02
              -1.1326435340981281E-02
              -9.5322404176260631E-03
              -6.7284206063952367E-03
              -2.0404706705167065E-02
              -1.2097903170564671E-03
               3.0381628371622345E-02
              -4.9570655434208934E-03
              -1.2829793947351889E-02
              -9.9547076221816275E-04
              -2.6042574286829837E-02
               2.5727183398672115E-03
               2.3989190696471385E-02
              -1.7761513026620879E-02
              -9.0952628637862368E-03
              -5.7514701767148813E-03
              -7.4806882108362687E-03
              -4.6595984082095955E-03
              -3.8825350824200763E-03
               7.3872842027643670E-03
               1.8312849631889630E-02
               2.1610305616991770E-02
              -1.6877408015415526E-03
               2.4203072552372983E-02
               1.1923096548406655E-02
               6.0892495503131585E-03
              -1.5186173267467365E-03
              -3.9464022936253574E-03
               4.2173049057381614E-03
               7.0243290726617110E-03
              -2.3057792547416995E-03
              -3.8508242913062665E-03
               1.3438409706982323E-02
              -1.1451773480295295E-02
               1.3888231057644352E-02
              -1.3097052798730378E-02
              -1.8389458959638727E-02
               2.5255036717614760E-04
              -2.0567051306517028E-03
              -9.6394475085249103E-03
               1.0874397740001178E-02
               1.5165927149664082E-02
               2.1769422475957649E-03
              -6.7683220295471575E-03
               8.3179479711873311E-03
              -1.3311832514916617E-02
              -1.5283841863616459E-02
              -6.0443389444330420E-03
               9.4795115934371427E-03
              -7.7852732676342070E-03
              -5.6134270130310891E-03
              -5.2239589352472884E-03
               2.1034175566370984E-02
               5.5683904503596102E-03
              -7.8828831800626786E-04
               2.2347949057852693E-03
               6.7904803479949000E-03
              -8.5853249270642744E-03
              -1.6045769094143289E-03
              -2.2165438886862884E-02
               9.7923778440213959E-03
              -5.7908031221417062E-03
               1.8576281159752388E-02
               7.4904149231792769E-03
               7.9458756456880844E-03
               5.9109481396429873E-03
              -4.7739322377896732E-03
              -2.4660896569834471E-03
              -9.6288666158135423E-03
               2.2973132712254302E-03
              -4.0164248695316760E-03
               1.3053984651470025E-02
               8.8377483965762227E-03
              -1.1179265511251767E-02
               1.1472093062058712E-05
               1.7195649756621679E-02
              -2.6804589584258670E-04
              -2.1717595175486902E-03
               3.8738979969093590E-02
              -2.6426526193644138E-02
              -9.0707396224460196E-03
               4.1990384264411398E-03
               1.2092057489672212E-02
               7.4574435745477308E-03
               1.9452443641314212E-04
              -2.4386737690739674E-03
              -1.2748863987973398E-02
              -3.3382987773217188E-02
              -6.4305281002648819E-03
               2.3460538537988088E-02
               9.3230286109165054E-03
              -3.2538806038538738E-03
              -2.6469874234101472E-03
               8.6707828902763233E-03
               1.0576037570982019E-02
               5.9889370662885993E-03
               1.1657178961798780E-02
              -2.8186306310743698E-03
               9.8384102652845536E-03
              -8.3990215230071164E-03
              -1.7219635732861243E-03
              -2.4705295934682962E-04
               7.1756821715070300E-03
              -5.9972528196930008E-03
               1.3170740660679005E-02
              -6.6470642937327623E-03
              -6.2190331385774920E-03
               5.6638399678668721E-03
               5.6575946853986148E-03
              -1.5404621856697821E-02
         &END THERMOSTAT_ENERGY
         &RNG_INIT
Wiener process for Thermostat # 1        1 F T F  -1.2046675724335087E+00        4071765522.0        3951111843.0        1713452607.0         393861703.0        3297516940.0        3222071211.0             12345.0             12345.0             12345.0             12345.0             12345.0             12345.0             12345.0             12345.0             12345.0             12345.0             12345.0             12345.0
Wiener process for Thermostat # 2        1 F T F  -1.0054725904948445E+00        2945075631.0        1287341055.0        2980103278.0        1916526502.0         543354315.0        4269666280.0        3692455944.0        1366884236.0        2968912127.0         335948734.0        4161675175.0         475798818.0        3692455944.0        1366884236.0        2968912127.0         335948734.0        4161675175.0         475798818.0
Wiener process for Thermostat # 3        1 F T F  -2.4512287193491384E+00        2801090341.0        1370962146.0        4059540546.0         405092375.0        3829565313.0        2641607841.0        1015873554.0        1310354410.0        2249465273.0         994084013.0        2912484720.0        3876682925.0        1015873554.0        1310354410.0        2249465273.0         994084013.0        2912484720.0        3876682925.0
Wiener process for Thermostat # 4        1 F T F   4.9888865352319511E-01         964009951.0        3414647325.0        2358953357.0        1950422855.0         332605123.0        4064608912.0        2338701263.0        1119171942.0        2570676563.0         317077452.0        3194180850.0         618832124.0        2338701263.0        1119171942.0        2570676563.0         317077452.0        3194180850.0         618832124.0
Wiener process for Thermostat # 5        1 F T F   4.1931545684982791E-01        2429669749.0        3541950823.0         288860629.0         815397166.0        1273760572.0        2038155148.0        1597262096.0        3906379055.0        3312112953.0        1016013135.0        4099474108.0         275305423.0        1597262096.0        3906379055.0        3312112953.0        1016013135.0        4099474108.0         275305423.0
Wiener process for Thermostat # 6        1 F T F   8.5660737264161180E-01         644950907.0        3459831224.0        1265909360.0        3654820923.0         956695495.0         102495065.0          97147054.0        3131372450.0         829345164.0        3691032523.0        3006063034.0        4259826321.0          97147054.0        3131372450.0         829345164.0        3691032523.0        3006063034.0        4259826321.0
Wiener process for Thermostat # 7        1 F T F   5.2845663513438890E-01        2999375668.0         260749689.0        1974782443.0        2260704341.0         805627913.0         698644477.0         796079799.0        2105258207.0         955365076.0        2923159030.0        4116632677.0        3067683584.0         796079799.0        2105258207.0         955365076.0        2923159030.0        4116632677.0        3067683584.0
Wiener process for Thermostat # 8        1 F T F   4.1456166693906699E-01        2670511515.0        3434171027.0        1396985122.0        2922493883.0        3950440423.0        3374715904.0        3281794178.0        2616230133.0        1457051261.0        2762791137.0        2480527362.0        2282316169.0        3281794178.0        2616230133.0        1457051261.0        2762791137.0        2480527362.0        2282316169.0
Wiener process for Thermostat # 9        1 F T F  -2.3699622070678178E-01        1446606442.0        3114491640.0        4291628537.0         177372208.0        1322250523.0        2447326693.0        3777646647.0        1837464056.0        4204654757.0         664239048.0        4190510072.0        2959195122.0        3777646647.0        1837464056.0        4204654757.0         664239048.0        4190510072.0        2959195122.0
Wiener process for Thermostat # 10       1 F T F  -9.4938883643131300E-02        2864092171.0        1431083022.0         210865004.0          26085739.0        3815804590.0        1842697051.0        4215590817.0        3862461878.0        1087200967.0        1544910132.0         936383720.0        1611370123.0        4215590817.0        3862461878.0        1087200967.0        1544910132.0         936383720.0        1611370123.0
Wiener process for Thermostat # 11       1 F T F   4.8066247520788957E-01        3468587148.0         985219093.0          95014174.0        3952011018.0        2451948182.0        1953845745.0        1683636369.0         362165168.0         814316280.0         869382050.0         980203903.0        2062101717.0        1683636369.0         362165168.0         814316280.0         869382050.0         980203903.0        2062101717.0
Wiener process for Thermostat # 12       1 F T F   3.9676277410667093E-01         902485948.0         428441463.0         615437856.0        1147795121.0        1659297420.0        1241207825.0         272317999.0         166758548.0         310112982.0         201045826.0        1680231254.0         118290799.0         272317999.0         166758548.0         310112982.0         201045826.0        1680231254.0         118290799.0
Wiener process for Thermostat # 13       1 F T F   1.5852311992073824E+00        1273706677.0        3155846791.0        4068255754.0        1248778659.0         521818054.0        2201385785.0        2245755202.0        1652682525.0        2865544364.0         721509566.0         209733568.0         592362218.0        2245755202.0        1652682525.0        2865544364.0         721509566.0         209733568.0         592362218.0
Wiener process for Thermostat # 14       1 F T F  -5.2029821048459511E-02        1548186550.0        2888396713.0          60895323.0        4144006812.0         884649552.0         259367950.0        3003961408.0        3529909391.0          14538032.0        3603919910.0         566682685.0        1235016484.0        3003961408.0        3529909391.0          14538032.0        3603919910.0         566682685.0        1235016484.0
Wiener process for Thermostat # 15       1 F T F  -4.7488236821740207E-02        1082456935.0        2767292826.0        2433071948.0        1883943675.0         729685997.0        4120497879.0         596094074.0        2279636413.0        3050913596.0        1739649456.0        2368706608.0        3058697049.0         596094074.0        2279636413.0        3050913596.0        1739649456.0        2368706608.0        3058697049.0
Wiener process for Thermostat # 16       1 F T F   1.2773944566816549E+00        1843209560.0        1126376688.0        2937481527.0        1253134349.0        1865800424.0        3048877851.0        1437096527.0        2547142266.0        2541498983.0        2640839690.0        2160978219.0        2618657830.0        1437096527.0        2547142266.0        2541498983.0        2640839690.0        2160978219.0        2618657830.0
Wiener process for Thermostat # 17       1 F T F   1.5303595075618106E+00        1663665921.0         415034056.0         428989604.0        1629736675.0        1402669252.0        4162371045.0        3224044943.0        1227141655.0        2220611050.0        1504589054.0        2829780440.0         108189859.0        3224044943.0        1227141655.0        2220611050.0        1504589054.0        2829780440.0         108189859.0
Wiener process for Thermostat # 18       1 F T F  -9.3213520808302042E-01        2550270478.0        3155581715.0        1924645584.0         755549290.0        2296372648.0         385662996.0         927434978.0        1593504038.0        2143021818.0        1749489845.0        1330187821.0        2371554242.0         927434978.0        1593504038.0        2143021818.0        1749489845.0        1330187821.0        2371554242.0
Wiener process for Thermostat # 19       1 F T F   1.1512621778038437E+00        3138397221.0        1628633579.0        3288655210.0        4280254667.0        2295820863.0        1459882037.0        3446225690.0         835741554.0        2195834023.0        1297741021.0        3357053382.0         383824268.0        3446225690.0         835741554.0        2195834023.0        1297741021.0        3357053382.0         383824268.0
Wiener process for Thermostat # 20       1 F T F  -6.0022529333009234E-01         472383172.0        1209483835.0        4004810864.0        3082438918.0         542728775.0        1975547037.0        3984477137.0        1267973573.0        3770063761.0         216527865.0        1568537936.0        1200352663.0        3984477137.0        1267973573.0        3770063761.0         216527865.0        1568537936.0        1200352663.0
Wiener process for Thermostat # 21       1 F T F   7.0185989346124555E-01        1920374234.0        2772744247.0        3833489545.0        3032478172.0        3902761365.0        1899202674.0        2503334853.0        3179736892.0        2080184241.0        2881517721.0        3611607237.0        2639045213.0        2503334853.0        3179736892.0        2080184241.0        2881517721.0        3611607237.0        2639045213.0
Wiener process for Thermostat # 22       1 F T F  -9.2340527031796660E-01         804499731.0        4075653032.0        2254318843.0         291751709.0        3493668589.0        1547923545.0        2784301963.0        3004110709.0        4065265451.0        2351994899.0        1824839263.0        1473060447.0        2784301963.0        3004110709.0        4065265451.0        2351994899.0        1824839263.0        1473060447.0
Wiener process for Thermostat # 23       1 F T F  -1.0153422443399082E-01        1647267917.0        1117458810.0         313805820.0         442524171.0        3355607860.0        1572960611.0        3645411182.0        1391027122.0        3995023402.0         536114258.0        1376034799.0        2391282907.0        3645411182.0        1391027122.0        3995023402.0         536114258.0        1376034799.0        2391282907.0
Wiener process for Thermostat # 24       1 F T F   2.7498288494457270E-03         157213688.0        1175706985.0        3362467325.0        2048021010.0        3319174262.0        3018881900.0        4205039797.0        2998067142.0        2737381050.0        2060484144.0          21123025.0         900610517.0        4205039797.0        2998067142.0        2737381050.0        2060484144.0          21123025.0         900610517.0
Wiener process for Thermostat # 25       1 F T F  -6.2394218851249905E-01        1911927514.0         590185640.0        2839177513.0        3656281841.0        3435768447.0        1039265601.0        1708138263.0        1103344630.0        3131738563.0         354874525.0        1462105562.0        2799820805.0        1708138263.0        1103344630.0        3131738563.0         354874525.0        1462105562.0        2799820805.0
Wiener process for Thermostat # 26       1 F T F   4.3230556967546956E-02          42968046.0        3501696046.0        3672760916.0         683133880.0         389727167.0        1961276366.0        1762624356.0        3338520614.0        1869672149.0        2420033342.0        3823777008.0        4112813433.0        1762624356.0        3338520614.0        1869672149.0        2420033342.0        3823777008.0        4112813433.0
Wiener process for Thermostat # 27       1 F T F  -2.3077561261431283E+00        2607586114.0        2926620977.0        3936126831.0        3787026846.0        1094297858.0        3223268208.0        1406960847.0        2689758640.0        2086764669.0        1479781266.0        4277003072.0        4173905453.0        1406960847.0        2689758640.0        2086764669.0        1479781266.0        4277003072.0        4173905453.0
Wiener process for Thermostat # 28       1 F T F  -1.2823031466258641E+00        3901569359.0         857632513.0        1531863225.0        1743724698.0        4165035456.0        2458099872.0        3217706054.0        3907922111.0        3316415646.0         934936431.0        1155310743.0        1383590847.0        3217706054.0        3907922111.0        3316415646.0         934936431.0        1155310743.0        1383590847.0
Wiener process for Thermostat # 29       1 F T F   3.5684297605087689E-01        1140046711.0        2370694169.0        1829011800.0        1231230124.0        4294196200.0        1438835672.0        2996242832.0        2506376012.0        1182520337.0         938957435.0        3286002927.0        1946707306.0        2996242832.0        2506376012.0        1182520337.0         938957435.0        3286002927.0        1946707306.0
Wiener process for Thermostat # 30       1 F T F   5.7073995492366691E-01        4231177470.0        3770297410.0        3020533556.0        2758110801.0        4099018713.0         251177370.0        3757057907.0        1334546224.0        1509001838.0         991499802.0        1502864996.0         921145139.0        3757057907.0        1334546224.0        1509001838.0         991499802.0        1502864996.0         921145139.0
Wiener process for Thermostat # 31       1 F T F   5.3986138176638576E-01        2634537664.0        1740133473.0        1932111747.0         483528865.0        1936862751.0        2799213536.0        3728532268.0         988545039.0        1631700325.0        1143954198.0        2209269908.0        1591407377.0        3728532268.0         988545039.0        1631700325.0        1143954198.0        2209269908.0        1591407377.0
Wiener process for Thermostat # 32       1 F T F   3.6649673886838613E-01        3423473750.0        1397255298.0        2260322367.0         681753428.0        2032256168.0         947277406.0        3294123071.0        1464634864.0        3721431761.0        2693241183.0        1754954480.0        3900039887.0        3294123071.0        1464634864.0        3721431761.0        2693241183.0        1754954480.0        3900039887.0
Wiener process for Thermostat # 33       1 F T F  -1.6738812314965285E-01        3447572268.0        1780275312.0        1215265595.0        1675596538.0         493088832.0         597439816.0         131824893.0        3188611738.0        1376082626.0        2419937722.0        2563475034.0        1251594162.0         131824893.0        3188611738.0        1376082626.0        2419937722.0        2563475034.0        1251594162.0
Wiener process for Thermostat # 34       1 F T F   1.6181551153499707E+00          51103631.0        2041755601.0        3690718725.0        1481862485.0        3892799503.0         406864205.0        3770164700.0        4029076745.0        1104720217.0        3496143152.0         735265587.0        3273706940.0        3770164700.0        4029076745.0        1104720217.0        3496143152.0         735265587.0        3273706940.0
Wiener process for Thermostat # 35       1 F T F  -2.8765581173148391E-01        3494582807.0        4029735742.0        3327677246.0         529357407.0        2742886970.0         992588296.0        2131062045.0        2455732983.0         789218840.0        1151705419.0         286383816.0         924846932.0        2131062045.0        2455732983.0         789218840.0        1151705419.0         286383816.0         924846932.0
Wiener process for Thermostat # 36       1 F T F   2.0877377407359324E-01        3037884315.0        1716829090.0         773556540.0         950091908.0        3581799531.0        1362593921.0        2053528341.0        4170407123.0        3515474899.0          98091789.0        1000335891.0        3854257602.0        2053528341.0        4170407123.0        3515474899.0          98091789.0        1000335891.0        3854257602.0
Wiener process for Thermostat # 37       1 F T F  -1.4718631573644063E+00        1842849299.0        4010419576.0        3033791697.0        1356514911.0        3098179708.0        1595773564.0        2469807084.0           9172128.0        3362394154.0        4021928081.0        2651348937.0        2296225074.0        2469807084.0           9172128.0        3362394154.0        4021928081.0        2651348937.0        2296225074.0
Wiener process for Thermostat # 38       1 F T F  -2.5649575152410331E-01         787764224.0        2734398939.0        4143246230.0        1951113155.0        2293354318.0        3168759399.0         794136241.0        1326962976.0        1423309168.0         588827532.0        1370684418.0        1646244893.0         794136241.0        1326962976.0        1423309168.0         588827532.0        1370684418.0        1646244893.0
Wiener process for Thermostat # 39       1 F T F   7.4072172034215067E-01        1324490342.0        1774675759.0        2400289208.0          39370813.0        3462163572.0        1797019562.0        2866999578.0        1918106148.0        3899143652.0        2905238681.0        3298551408.0         326591245.0        2866999578.0        1918106148.0        3899143652.0        2905238681.0        3298551408.0         326591245.0
Wiener process for Thermostat # 40       1 F T F   2.5853537012826561E-01        2364196320.0        3652933679.0        1461551430.0         309537361.0         864323025.0        3210884050.0        3040096556.0        1206876890.0         780501254.0         597456198.0        1004013014.0        3962406934.0        3040096556.0        1206876890.0         780501254.0         597456198.0        1004013014.0        3962406934.0
Wiener process for Thermostat # 41       1 F T F   3.4294911266660960E-01        2155509727.0        3256676781.0        2200994700.0        3727054804.0        3934126681.0          58352394.0        3970659565.0        2743575038.0        4070166570.0         141329301.0        2711190398.0         148640829.0        3970659565.0        2743575038.0        4070166570.0         141329301.0        2711190398.0         148640829.0