&GLOBAL
  ! the project name is made part of most output files... useful to keep order 
  PROJECT WATER
  ! various runtypes (energy, geo_opt, etc.) available.
  RUN_TYPE MD # ENERGY or MD
  ! limit the runs to 5min
  WALLTIME 300
  ! reduce the amount of IO
  IOLEVEL MEDIUM
&END GLOBAL

&FORCE_EVAL
  ! the electronic structure part of CP2K is named Quickstep
  METHOD Quickstep
  &DFT
    ! basis sets and pseudopotential files can be found in cp2k/data
    BASIS_SET_FILE_NAME BASIS_MOLOPT
    BASIS_SET_FILE_NAME BASIS_ADMM
    POTENTIAL_FILE_NAME GTH_POTENTIALS
    WFN_RESTART_FILE_NAME WATER-RESTART-GGA.wfn

    ! Charge and multiplicity
    CHARGE 0
    MULTIPLICITY 1

    &MGRID
       ! PW cutoff ... depends on the element (basis) too small cutoffs lead to the eggbox effect.
       ! certain calculations (e.g. geometry optimization, vibrational frequencies,
       ! NPT and cell optimizations, need higher cutoffs)
       CUTOFF [Ry] 400 
    &END

    &QS
       ! use the GPW method (i.e. pseudopotential based calculations with the Gaussian and Plane Waves scheme).
       METHOD GPW 
       ! default threshold for numerics ~ roughly numerical accuracy of the total energy per electron,
       ! sets reasonable values for all other thresholds.
       EPS_DEFAULT 1.0E-10 
       ! used for MD, the method used to generate the initial guess.
       EXTRAPOLATION ASPC 
    &END

    &POISSON
       PERIODIC XYZ ! the default, gas phase systems should have 'NONE' and a wavelet solver
    &END

    &PRINT
       ! at the end of the SCF procedure generate cube files of the density
       &E_DENSITY_CUBE OFF
       &END E_DENSITY_CUBE
       ! compute eigenvalues and homo-lumo gap each 10nd MD step
       &MO_CUBES
          ! compute 4 unoccupied orbital energies
          NLUMO 4
          NHOMO 4
          ! but don't write the cube files
          WRITE_CUBE .FALSE.
          ! do this every 10th MD step.
          &EACH
            MD 10
          &END
       &END
    &END

    ! use the OT METHOD for robust and efficient SCF, suitable for all non-metallic systems.
    &SCF                              
      #SCF_GUESS ATOMIC ! can be used to RESTART an interrupted calculation
      SCF_GUESS RESTART ! can be used to RESTART an interrupted calculation
      MAX_SCF 30
      EPS_SCF 1.0E-6 ! accuracy of the SCF procedure typically 1.0E-6 - 1.0E-7
      &OT
        ! an accurate preconditioner suitable also for larger systems
        PRECONDITIONER FULL_SINGLE_INVERSE
        ! the most robust choice (DIIS might sometimes be faster, but not as stable).
        MINIMIZER DIIS
      &END OT
      &OUTER_SCF ! repeat the inner SCF cycle 10 times
        MAX_SCF 10
        EPS_SCF 1.0E-6 ! must match the above
      &END
      ! do not store the wfn during MD
      &PRINT
        &RESTART ON
        &END
      &END
    &END SCF

    ! specify the exchange and correlation treatment
    &XC
      ! use a PBE0 functional 
      &XC_FUNCTIONAL
       &PBE
         ! 75% GGA exchange
         SCALE_X 0.75
         ! 100% GGA correlation
         SCALE_C 1.0
       &END PBE
       &PBE_HOLE_T_C_LR
         CUTOFF_RADIUS 2.5
         SCALE_X 0.25
       &END
      &END XC_FUNCTIONAL
      &HF
        ! 25 % HFX exchange
        FRACTION 0.25
        &SCREENING
          ! important parameter to get stable HFX calcs
          EPS_SCHWARZ 1.0E-6
          ! needs a good (GGA) initial guess 
          SCREEN_ON_INITIAL_P TRUE
        &END
        &INTERACTION_POTENTIAL
          ! for condensed phase systems
          POTENTIAL_TYPE TRUNCATED
          ! should be less than halve the cell
          CUTOFF_RADIUS 6.0
          ! data file needed with the truncated operator
          T_C_G_DATA ./t_c_g.dat
        &END
        &MEMORY
          ! In MB per MPI rank.. use as much as need to get in-core operation
          MAX_MEMORY 4000
          EPS_STORAGE_SCALING 0.1
        &END
      &END
      ! adding Grimme's D3 correction (by default without C9 terms) 
      &VDW_POTENTIAL
         POTENTIAL_TYPE PAIR_POTENTIAL
         &PAIR_POTENTIAL
            PARAMETER_FILE_NAME dftd3.dat
            TYPE DFTD3
            REFERENCE_FUNCTIONAL PBE0
            R_CUTOFF [angstrom] 16
         &END
      &END VDW_POTENTIAL
    &END XC
    #
    ! use ADMM
    &AUXILIARY_DENSITY_MATRIX_METHOD
      ! recommended, i.e. use a smaller basis for HFX
      ! each kind will need an AUX_FIT_BASIS_SET.
      METHOD BASIS_PROJECTION
      ! recommended, this method is stable and allows for MD. 
      ! can be expensive for large systems
      ADMM_PURIFICATION_METHOD MO_DIAG
    &END
  &END DFT
 
  ! description of the system
  &SUBSYS
    &CELL 
      ! unit cells that are orthorhombic are more efficient with CP2K
      ABC [angstrom] 12.42 12.42 12.42
    &END CELL

    ! atom coordinates can be in the &COORD section,
    ! or provided as an external file.
    &TOPOLOGY
      COORD_FILE_NAME water.xyz
      COORD_FILE_FORMAT XYZ
    &END

    ! MOLOPT basis sets are fairly costly,
    ! but in the 'DZVP-MOLOPT-SR-GTH' available for all elements
    ! their contracted nature makes them suitable
    ! for condensed and gas phase systems alike.
    &KIND H
      BASIS_SET DZVP-MOLOPT-SR-GTH
      BASIS_SET AUX_FIT FIT3
      POTENTIAL GTH-PBE-q1
    &END KIND
    &KIND O
      BASIS_SET DZVP-MOLOPT-SR-GTH
      BASIS_SET AUX_FIT FIT3
      POTENTIAL GTH-PBE-q6
    &END KIND
  &END SUBSYS
&END FORCE_EVAL

! how to propagate the system, selection via RUN_TYPE in the &GLOBAL section
&MOTION
  &PRINT
   &TRAJECTORY
     &EACH
       MD 1
     &END EACH
   &END TRAJECTORY
   &VELOCITIES OFF
   &END VELOCITIES
   &FORCES OFF
   &END FORCES
   &RESTART_HISTORY
     &EACH
       MD 500
     &END EACH
   &END RESTART_HISTORY
   &RESTART
     BACKUP_COPIES 3
     &EACH
       MD 1
     &END EACH
   &END RESTART
  &END PRINT
&END MOTION
#&EXT_RESTART
#  RESTART_FILE_NAME WATER-1.restart
#&END