&FORCE_EVAL
  METHOD FIST
  &MM
    &FORCEFIELD
      parmtype CHM
      parm_file_name toppar/par_all27_prot_lipid.prm
      &SPLINE
         EMAX_SPLINE 1.0e6 # default 0.5
         RCUT_NB 10.0
      &END
    &END FORCEFIELD
    &POISSON
      &EWALD
        EWALD_TYPE spme
        ALPHA .44
        GMAX 36
        O_SPLINE 6
      &END EWALD
    &END POISSON
  &END MM
  &SUBSYS
    &CELL
      ABC 40.685   42.380   46.291
    &END CELL
    &TOPOLOGY
      COORD_FILE_NAME solvate.pdb
      COORDINATE pdb
      CONN_FILE_FORMAT psf
      CONN_FILE_NAME solvate.psf
    &END TOPOLOGY
    !
    &KIND CT2A
      ELEMENT C
    &END KIND
    !
    &KIND CAI
      ELEMENT C
    &END KIND
    !
    &PRINT
      &TOPOLOGY_INFO
         PSF_INFO
      &END
    &END
  &END SUBSYS
&END FORCE_EVAL

&GLOBAL
  PROJECT ubiquitin_md
  RUN_TYPE MD
&END GLOBAL

&EXT_RESTART
  RESTART_FILE_NAME ubiquitin_mini-1.restart
  RESTART_DEFAULT F
  RESTART_POS T
&END EXT_RESTART

&MOTION
  &MD
    ENSEMBLE NVT
    STEPS 10000
    TIMESTEP 0.5
    TEMPERATURE 298
    &THERMOSTAT
       REGION MASSIVE
       TYPE CSVR
       &CSVR
         TIMECON 100.
       &END
    &END
  &END MD
  !
  &PRINT
    &TRAJECTORY
      #FILENAME = trajectory.xyz
      FILENAME = ubiquitin_md-nvt-1.xyz
      LOG_PRINT_KEY = TRUE
      &EACH
        MD = 100
      &END EACH
    &END TRAJECTORY
  &END PRINT
&END MOTION
