&FORCE_EVAL
  METHOD FIST
  &MM
    &FORCEFIELD
      #this assumes that you've downloaded and extracted the file as instructed
      parmtype CHM
      parm_file_name toppar/par_all27_prot_lipid.prm
      &SPLINE
         EMAX_SPLINE 1.0e6 # default 0.5
         RCUT_NB 10.0
      &END
    &END FORCEFIELD
    &POISSON
      &EWALD
        EWALD_TYPE spme
        ALPHA .44
        GMAX 36
        O_SPLINE 6
      &END EWALD
    &END POISSON
  &END MM
  &SUBSYS
    &CELL
      ABC 40.685   42.380   46.291
    &END CELL
    &TOPOLOGY
      COORD_FILE_NAME solvate.pdb
      COORDINATE pdb
      CONN_FILE_FORMAT psf
      CONN_FILE_NAME solvate.psf
    &END TOPOLOGY
    !
    &KIND CT2A
      ELEMENT C
    &END KIND
    !
    &KIND CAI
      ELEMENT C
    &END KIND
    !
  &END SUBSYS
&END FORCE_EVAL

&GLOBAL
  PROJECT ubiquitin_mini
  RUN_TYPE GEO_OPT
&END GLOBAL

&MOTION
  &GEO_OPT
    MINIMIZER LBFGS
    #just do 100 steps, 
    #we only want to remove bad contacts
    MAX_ITER 100
  &END
&END MOTION
