&FORCE_EVAL
  METHOD FIST
  &MM
    &FORCEFIELD
      #this assumes that you've downloaded and extracted the file as instructed
      #parm_file_name toppar/par_all36m_prot.prm
      parm_file_name toppar/par_all27_prot_lipid.prm
      parmtype CHM
      &SPLINE
         EMAX_SPLINE 1.0e6 # default 0.5
         RCUT_NB 10.0
      &END
      !
      ! SPC water model
      !IGNORE_MISSING_CRITICAL_PARAMS TRUE
      !
      ! https://docs.lammps.org/Howto_tip3p.html
      !&BOND
      !  ATOMS OT HT
      !  KIND CHARMM
      !  R0 0.93944837 # [bohr]
      !  K 450.0 # [Angstrom^-2*kcal/mol]
      !&END BOND
      ! https://docs.lammps.org/Howto_tip3p.html
      !&BEND
      !  ATOMS HT OT HT
      !  KIND CHARMM
      !  THETA0 1.82421813 # [rad], 104.52 [degree]
      !  K 0.087648 # [rad^-2*hartree], 55.0 [rad^-2*kcal/mol]
      !&END BEND
      !
    &END FORCEFIELD
    &POISSON
      &EWALD
        EWALD_TYPE spme
        ALPHA .44
        GMAX 36
        O_SPLINE 6
      &END EWALD
    &END POISSON
  &END MM
  &SUBSYS
    &CELL
      ABC 56.934   63.199   67.758
    &END CELL
    &TOPOLOGY
      COORD_FILE_NAME solvate.pdb
      COORDINATE pdb
      CONN_FILE_FORMAT psf
      CONN_FILE_NAME solvate.psf
    &END TOPOLOGY
    !
    &KIND CT2A
      ELEMENT C
    &END KIND
    !
    &KIND CAI
      ELEMENT C
    &END KIND
    !
  &END SUBSYS
&END FORCE_EVAL

&GLOBAL
  PROJECT Cytochrome-C_mini
  RUN_TYPE GEO_OPT
&END GLOBAL

&MOTION
  &GEO_OPT
    MINIMIZER LBFGS
    #just do 100 steps, 
    #we only want to remove bad contacts
    MAX_ITER 100
  &END
&END MOTION
