@SET ROOT ./../
&FORCE_EVAL
  METHOD FIST
  &MM
    &FORCEFIELD
      parm_file_name ${ROOT}/Files/mol_solv.top
      parmtype AMBER
      &spline
       rcut_nb 9.0
      &end
    &END FORCEFIELD
    &POISSON
      &EWALD
        EWALD_TYPE spme
        ALPHA .4
        GMAX 54
        O_SPLINE 4
      &END EWALD
    &END POISSON
  &END MM
  &SUBSYS
    &CELL
      # these are the averaged cell lengths
      ABC [bohr] 38.5881 38.8412 38.9956
    &END CELL
    &TOPOLOGY
      CONN_FILE_NAME ${ROOT}/Files/mol_solv.top
      CONNECTIVITY AMBER
      COORD_FILE_NAME ${ROOT}/Files/mol_solv.crd
      COORDINATE CRD
    &END TOPOLOGY
  &END SUBSYS
 STRESS_TENSOR ANALYTICAL
 &PRINT
   &PROGRAM_RUN_INFO
      &EACH
       MD 100
      &END
   &END
   &STRESS_TENSOR
      &EACH
       MD 100
      &END
   &END
 &END
&END FORCE_EVAL
&GLOBAL
  PRINT_LEVEL LOW
  PROJECT UREA-ZW
  RUN_TYPE md
&END GLOBAL
&MOTION
  &MD
    ENSEMBLE NVT
    STEPS 10000
    TIMESTEP 0.5
    TEMPERATURE 298
    &THERMOSTAT
      TYPE NOSE
      REGION MOLECULE
      &NOSE
        TIMECON [fs] 100.
      &END
    &END
    &PRINT
      &PROGRAM_RUN_INFO
        &EACH
          MD 100
        &END
      &END
      &ENERGY
        &EACH
          MD 100
        &END
      &END
    &END
  &END MD
  &PRINT
    &RESTART OFF
      &EACH
        MD 2000
      &END
    &END
    &RESTART_HISTORY 
      &EACH
        MD 10000
      &END
    &END
    &TRAJECTORY
      &EACH
        MD 2000
      &END
    &END
    &VELOCITIES OFF
    &END
    &CELL 
      &EACH
        MD 2000
      &END
      COMMON_ITERATION_LEVELS 3
    &END
  &END
&END MOTION
&EXT_RESTART
  RESTART_FILE_NAME ../RUN01_EQUIL_MM/UREA-ZW-1_100000.restart
  RESTART_CELL F
&END
