 # Version information for this restart file 
 # current date 2011-02-04 17:17:42.832
 # current working dir /homes/sp/teo/My_Exercises/UREA/Runs/RUN01_EQUIL_MM_AVG
 # Program compiled at                              Wed Feb  2 18:55:22 CET 2011
 # Program compiled on                                                 bladeppc7
 # Program compiled for                                           Linux-ppc7-xlf
 # Last CVS entry                     cp2k_info.F/1.525/Wed Feb  2 17:40:21 2011
 &GLOBAL
   PRINT_LEVEL  LOW
   PROJECT_NAME UREA-ZW
   RUN_TYPE  MD
 &END GLOBAL
 &MOTION
   &MD
     ENSEMBLE  NVT
     STEPS           10000
     TIMESTEP     4.9999999999999994E-01
     STEP_START_VAL          110000
     TIME_START_VAL     5.4999999999942251E+04
     ECONS_START_VAL     0.0000000000000000E+00
     TEMPERATURE     2.9800000000000000E+02
     &THERMOSTAT
       TYPE  NOSE
       REGION  MOLECULE
       &NOSE
         TIMECON     9.9999999999999986E+01
         &COORD
               3.6991180423151042E+00   -6.0939421150080895E+00    2.3274646916213619E+01    6.5679723006975470E+00 \
               1.7173206251474475E+01   -2.2498398925353801E+01   -2.3537011761361290E-01   -7.5520939618650740E+00    8.9398162666935133E-01 \
               1.1886917149832393E-02    2.5925979072307676E+01   -2.2730860148836904E+01   -2.3494725616004155E+00   -8.1301683919648333E+00 \
               3.0121978828523077E-01   -1.3696658792087346E+01    7.9584355545586774E+01   -4.2270640217620745E+01    3.5263881663830197E+00 \
               5.1735789671819035E+01   -2.6330557897416270E+01    2.5292213162091239E+00   -3.7197936464485863E+01    5.0771882123723969E+01 \
               1.5336804887854485E+00   -1.3403186483208428E+01   -9.1469162575982512E+00    2.6601196568035381E+00    1.1805569978318449E+00 \
              -1.3260856737080090E-01    2.8174866946076440E+00   -2.2635323053117585E+01    1.2087629202676077E+01    2.2357596725920739E+00 \
              -2.6130014589328500E+01    9.1337756725238002E+00   -2.9164516692253297E+00   -1.0768905262767612E+01    1.1199043953327431E+01 \
               4.3502712409855560E-01   -7.1092592643127503E+01    5.3852586381987066E+01    2.2676514867294553E+00    3.9116349945615575E-01 \
              -1.8223967377334336E+01   -8.1914587069206029E+00    1.7211290537844890E+00    8.2282091737687271E+00   -1.1871417575360617E+01 \
               1.4555840009905529E+01   -6.5659097537612423E+00   -5.6295572633843651E+00    1.7626564122389521E+01   -1.4676291789523267E+01 \
              -5.4480723760374405E-01    5.2986703135141511E+01   -1.3876048050670727E+01   -6.7302611535327161E-01    5.6083565394456283E+00 \
               7.7398730741582078E+00   -5.2093284676066682E+00    5.7223304158913093E+00   -5.1413216346304269E+00    1.8196680545512560E+00 \
               5.8817023279791343E+00   -1.6084334551731704E+01   -4.8401875911852548E+00    4.7010746527440645E+01   -2.7241289100022950E+01 \
              -1.1692623321871652E+01    1.6605832649801325E+01   -8.5158190775127700E+00    2.8138087222152131E-01    1.6555291599411135E+00 \
               1.3667001270165315E+01    1.3034604069110238E+00   -1.2324120885317758E+00   -3.6692024339194629E-01    1.2769475762292841E+00 \
              -3.6812641107878122E+01   -5.1459070638800277E+00    6.3264430212733727E+00    3.0778409220554583E+00    1.7250304511013695E+01 \
              -3.6256776807359041E+00   -4.6180243723685273E+01    3.2872402561785037E+01    4.1068463709228036E+00   -4.0833491946482987E+01 \
               4.3969630188803933E+01    6.7387053839226470E+00   -2.3758430735687419E+01    2.1152704742178045E+01   -2.1931485313530361E-01 \
              -2.4374018170631121E+01    3.3938998835110098E+01    6.3358059971535416E+00   -3.3940344498614867E+00    1.7047825763131129E+01 \
              -3.8545940735436433E+00   -6.1868975595173872E+00   -1.3458619297690486E-01   -2.8055496211769038E+00    2.6390438892979901E+01 \
               5.9332008889495003E-01    5.6423529418564078E+00   -1.8549069505633192E+01    2.8267872904106575E+01    2.4789456199004216E+00 \
               4.1693942869624742E+01   -2.4811595840856913E+01   -8.1293985528863697E+00    2.0497429103472168E+01   -5.4788912746744787E+00 \
              -1.7868086591348902E+00    3.7857350617551816E+01   -2.3945954124093600E+01   -1.8504443483495809E+00    4.8839816454889032E+01 \
              -2.0222410238197025E+01    3.7675194013069180E+00    8.6262019806523274E+00    2.3475260205887064E+01   -4.5082910944483503E+00 \
               6.8603107844744917E+00   -8.0459308473183455E+00   -1.0403352702198985E+01    2.8199591316252871E+01   -1.1858738954542023E+01 \
              -4.4620611782334390E+00   -7.1425227077283413E+00   -1.4190885300958636E+01    1.1701267279110821E+01    2.2153580851366307E+01 \
              -2.1844269138508174E+01   -5.8590152412782967E-02    7.6634010678742737E+00    4.6390425084398563E+00   -2.9012560789105772E+00 \
               2.6965780801929107E+01   -2.9536847725152747E+01    4.0067490047820504E+00    1.1574087460807919E+01    1.7829895627351441E+01 \
               2.6952836275832754E+00   -6.4953902816589917E+00    1.4984223439663116E+00   -9.2274918811933446E+00   -1.3120898825005336E+01 \
               7.6464896616790892E+00   -2.0998789473905277E+00    3.0659329271984561E+01   -3.6672011193186037E+01   -1.4419595074793822E+01 \
               9.9679189042808094E+00    1.5626535849859049E+00   -2.2914637897182808E+00    4.0614292423733794E+01   -2.9974267907560936E+01 \
               2.9917053199963561E+00   -1.5349035898233254E+01    3.2197739429229962E+01   -4.9654775902641077E+00    3.3847043813950691E+01 \
              -2.2453184609415725E+01   -5.6566578433814554E+00    2.7996447447332841E+01   -1.9111334674332216E+01   -9.3123856515444392E-01 \
              -7.7597646729837511E-01    1.6718192731270282E+01   -6.1401091761516966E+00    1.4963862524035344E+01    2.8969165486071773E+01 \
              -4.1922960585221309E+00    2.7410698194504942E+01   -1.3249294346216956E+01    7.5825660032726594E-01   -3.5790830440048182E+01 \
               2.6630675506653645E+01    7.0215308689100864E+00   -6.2972904189311372E+01    4.6594032455066994E+01   -2.8151504315056841E+00 \
               1.6701690952146635E+01   -6.3031652831000443E+01    4.6526544328728168E+00    3.9217244030586393E+01   -2.9828692389830774E+01 \
              -3.8598501219838695E+00   -1.7940495298863784E+01    4.1503797967841926E+01    2.3792030167721396E+00    2.4170126048116329E+00 \
               8.7491092464941396E+00    9.9591557761833709E+00   -1.1442397235283961E+01   -3.7970043142720691E+00    7.6649528404393519E-01 \
               1.0950880695220153E+01   -2.2705062779687715E+01    8.4225311747144822E+00   -2.3949112690529182E+00    1.0351921345933095E+01 \
              -5.4437268504541603E+00   -1.2337269522069802E+01    1.9046871389892532E+00   -3.1769237428121584E+00   -3.0055536369711319E+01 \
               9.2139814656636734E+00    1.3533606371134344E+00   -2.1830422448258442E+01   -2.2928862581082214E+01   -1.0142376597677398E+01 \
              -7.0476016023026640E+00    3.5355030294542615E+01   -4.9823997153273208E-01    1.6626371983972078E+01    3.9198884158956582E+00 \
               5.6684645876247526E+00   -2.3844415191763058E+00    6.1214797767399798E+00   -1.9874399596504568E+00   -2.9387088768078865E+01 \
               2.1441771147640225E+01   -9.6214471477005024E+00    6.5760999989446791E+00   -4.7165447336727151E-01    1.7975256936700792E+00 \
              -7.2695158419016295E+00   -6.8716927363659608E-01    8.2924344070199094E+00   -1.4361824974358701E+01    1.6015668361774189E+01 \
               2.3473229332054553E+00   -7.1006522182572960E+00    3.5653958487363808E+00   -2.4975651327105219E+00    1.7287224535564121E+01 \
              -5.3156009507296211E+01    3.2415079323433322E+00   -3.2171914287372734E+00   -1.5758711476323318E+01   -8.4543011693755066E+00 \
              -6.3544922406423687E+01    3.3586143123459223E+01   -3.7718897324968697E+00    3.5393299950334736E+01   -1.3890128214192757E+01 \
               6.1057044992720737E+00    2.6536154358875550E+01   -2.7480230877699778E+01    5.2470909943209829E+00   -4.6591546379307829E+01 \
               3.5843870057393758E+01    5.2833120745941002E+00   -1.5939042210725052E+01    2.0719939704268825E+01   -6.3027692203564900E+00 \
              -7.1681372248476620E+00    2.2448208603672580E+01   -7.9942561007850044E+00   -6.3298111423855179E+00    2.6913807554382288E+01 \
               2.2119563935312745E+00   -4.9161993830471324E+01    3.5812372150391262E+01   -2.1437567806826383E+00   -4.6475068270059303E+00 \
               9.6697461111211336E+00   -1.4111300758271261E+01    1.8868563137029028E+01   -3.8783233462952431E+00    4.8027911369606757E+00 \
               1.5666856562190903E+01    1.5680417052302071E+00    7.5308412106190756E+00   -2.7168118678372024E+00    1.7640908102369042E+00 \
               3.5270312988920489E+00   -1.0377429277517949E+01    1.5205235578642458E+01    2.5637001563299213E+00   -2.3895662867642134E+01 \
               2.5728941081315522E+01   -1.9249176199498450E+00    1.6575762725476764E+01   -7.6708269312568911E+00    7.2377895481214194E-01 \
              -3.4624382797298779E+01    5.1150506114123289E+01    2.8922413851740734E+00    5.1271818778884303E+01   -3.0623052050657609E+01 \
               8.4807284165123988E+00   -4.4456394500532488E+00    2.0911107710128901E-01    5.3002986410498778E+00    1.0860147476761048E+01 \
              -1.5059978188125781E+01   -1.8385307835575468E+00   -7.0570790339332623E+00    3.2129218942973928E+01    8.2367228865856568E+00 \
              -2.2630927967148200E+01    2.8495540181542783E+01   -5.1279558936745131E+00    2.4940651152056365E+01   -2.4274525746034509E+01 \
              -9.8745672961948401E+00    2.6997841776062053E+01   -6.2608782697897505E+00   -4.2842713318106647E+00   -3.4119855439315387E+01 \
               1.8237692238300632E+01   -1.3189149218686689E+00   -3.9912918121258670E+01    2.0768218974472497E+01    3.2121649264172354E+00 \
              -3.9402811018481110E+00   -1.1083050872414097E+01   -4.9369340857817106E+00    1.1733958227776217E+01    1.5094073778145029E+01 \
              -3.6208553197256701E+00   -5.1912974619476216E+01    7.3253505440703350E+01   -4.7121173522088409E+00   -1.5517066915533734E+01 \
              -1.3438773153941824E+01    1.4463624240901666E+01   -1.6883023161210936E+01    7.6314825362433396E+00    4.6562523939440403E+00 \
              -4.4790820915587517E+01    5.2138110227371136E+01   -7.1275533899920474E+00    1.9464081257741327E+01   -2.0125884702605507E+01 \
               3.8079269291939859E+00   -3.1981162317346939E+01    2.1993512018187463E+01    2.0974449884828785E+00   -4.7304039298568931E+01 \
               4.7621755416465810E+01    3.6826430177860150E+00    1.2782647617841407E+01    5.7029960484044695E+00    4.4117107434956591E+00 \
              -4.5264760800058561E+01    2.8178580610634896E+01    5.8671182018511114E-01    3.3299033177831632E+01   -3.8207264832515968E+01 \
              -5.1026734663445481E+00   -3.4288048948137266E+01    4.7235321187999055E+01   -6.0592509932800969E+00    3.4967493752111316E+01 \
              -4.1372429830573537E+01    4.5215511104214663E+00    4.4167173838276401E+00   -1.7945508384979359E+01    7.7853895130085493E-01 \
               3.7333674759994672E+01   -4.4516482358203731E+01   -4.2072128686306423E+00    3.5043566673118612E+01   -5.6040041645239045E+00 \
               1.9692956912970601E+00   -4.9517018992200882E+01    2.1932010889463964E+01    1.7142020749574247E+00    3.0930009317739959E+01 \
              -2.7806183414570473E+01    4.6135319616201018E+00   -3.7193465175216343E+00   -2.3819673192232745E+01    1.0372222023415512E+01 \
              -3.2640279267080359E+01    2.9367793410446087E+01   -5.3682414719058746E+00    4.8040044111095639E+01   -4.1731700233003338E+01 \
              -2.5511213414834510E+00    1.2540988737284980E+01   -4.7330002509622737E+00    1.0530690394814460E+01   -4.4640988078696225E+01 \
               4.2267152729353768E+01    1.1326375569226317E+00    7.7324626956339833E+00   -3.4980212114662784E+01    1.9150906901430684E+00 \
              -6.5072186412417332E-01    3.0519737109107545E+01    5.8086076610563389E+00   -1.8614541119118176E+01    6.3090756657184990E+00 \
               3.3230792470664592E+00    6.8211754967286540E+00    1.7421866252652074E+00    2.2666608642068868E+00    5.7171539624992548E+01 \
              -5.8186415522425307E+01    3.7209505555454236E+00    4.0224947829573857E+01   -5.8682921755161033E+01    2.7944009585454928E+00 \
              -2.7402117205259639E+01    1.4839864677805316E+01   -3.0819704533946197E+00    2.1737558742182546E+00   -1.9077324343347108E+01 \
              -3.2978985308396362E+00    6.1173883720899038E+00   -2.1232413203410598E+01    6.1326221321395007E+00   -2.5097943434140237E+01 \
               3.3589234686024298E+01    9.7662669418770971E+00    4.4187942357499583E+00    1.4317176010735226E-02    9.7704459269105719E+00 \
               1.6532301351025463E+01    3.0652337852350566E+00   -1.5054420340023395E+01   -1.1169515245683883E+01    1.9867980257411286E+00 \
              -5.1035237058297582E+00   -2.2381674759193597E+01   -3.5589924549414964E+00   -3.1389257632428991E-01   -2.9434648031474151E+01 \
               3.4767379994841434E+01   -1.4014544682544978E+01    1.4289852892878333E+01   -1.5580191260910768E+01    3.2087233219680296E+00 \
               1.5827052535537723E+01   -8.8054986172050267E+00   -5.2720457469212256E+00   -2.8426991846740805E+01    4.1777139326644182E+01 \
               7.8544533198960753E+00    3.0878053168509464E+01   -1.7738274905300035E+01    4.9597885593661832E+00    4.1077684058636336E+01 \
              -5.1211238544481823E+01    4.6631207534281655E-01    4.5113247481746136E+01   -1.9380371058410162E+01   -6.0180078981883591E+00 \
               3.1437318885733090E-01    6.9791239356200840E-01    1.7616362639968351E+01   -1.5996233626248291E+01   -6.7325876637852922E+00 \
              -9.2314458795455216E+00    1.3673388777797754E+01   -9.1929140726105345E+00    7.4703788079123941E+00    2.2827830353291305E+00 \
              -1.2660041238395880E+01    6.5620737062021171E+00    2.3185755360049242E+01   -2.0012552273317588E+01   -9.1589992858987710E+00 \
               2.6914624395470824E+01    1.9068072562274491E+01    4.7448311336594413E+00   -2.1260998003361763E+01    1.1057937469518668E+01 \
               6.6118199344349344E+00    2.9658929429983529E+00    2.0093436957978841E+00   -6.2099209462991460E+00    1.2414623989637523E+01 \
              -1.9096469755971459E+01    8.1011962893727159E+00    1.2630041943358556E+01    6.0446952206400981E+00    3.6697281677012028E+00 \
              -1.7318668998569702E+01    1.5918743477624909E+01   -4.7007002033014516E+00    1.9452299330497663E+01   -4.6923848542193419E+01 \
               8.3185579679320654E+00    2.6422936762905625E+01   -2.3491562290548949E+01   -2.3659429482890300E+00    4.9496095987411648E+00 \
              -4.0582362256958309E+00    5.6277351530610993E+00   -9.2353947196114667E+00   -1.5040802416719842E+01   -6.9460943109293023E+00 \
               4.2834458757671172E+01   -3.7081109320594010E+01   -6.4799891594898149E+00   -1.6517068257685118E+01    5.3673267677533980E+00 \
              -8.6325108196705056E+00    3.1569452929747584E+01    2.5458462429797510E+01   -3.0980529659545613E+00    8.1707108770107880E+01 \
              -6.2287403638943942E+01   -1.9465576083455421E+01   -1.5540433191510949E+01   -9.6575007349054314E+00    1.4332989391264246E+00 \
              -1.8821453111138251E+01   -8.3142388919742203E+00    6.2279944291421190E+00   -1.0395948671798592E+01    1.4882122407887152E+01 \
              -1.2543132170362858E+01    1.8319702112385627E+01   -7.9116760706348863E+00    9.0898740651966072E+00   -4.9214394897523285E+01 \
               6.4168263014542035E+01    1.6955040473118990E+00   -7.9812804878068180E+00   -1.0684031132644101E+01    6.2075470615180111E+00 \
               3.5427751535553647E+01   -2.5923474810222302E+01    5.1956306221131510E-01   -2.5785618245089786E+01    1.3415282750340463E+01 \
               5.5707913914643203E+00    7.4834520130743920E+00   -3.8193682503990878E+01    2.4688850337609075E-01   -8.2083170350597694E+00 \
               1.2012285300523970E+01   -5.6028118751899383E+00   -1.6097005264322739E+01    9.3649259951838440E-02    4.2861700442405679E+00 \
              -3.3554283058551988E+01    1.7140084113258542E+01   -1.2577464027361577E+01    4.3213270232247751E+00   -2.2937736864245998E+01 \
               3.3216196168879124E+00    1.3846749618493892E+01   -3.3077505920421274E+01    3.1092527435849995E+00    1.2083094702176599E+01 \
              -2.1734531092777953E+01    9.5658973505766749E+00    1.3949462964234279E+01   -1.1251547644453012E+01    5.0248091648558884E+00 \
               3.8775100280010307E+01   -2.2188431341848073E+01    4.7870945240842078E+00    3.1657068893346025E+01   -3.6162892885982387E+01 \
               7.2472278355183981E+00   -1.6580734245398183E+01    1.1952901649533644E+01    1.0881727550139685E+01    1.5063969197836338E+01 \
               1.1402411878540438E+01   -2.1487945936976454E+00    4.0188212096389698E+01   -2.3781365396589493E+01   -2.5942584310093251E+00 \
              -6.4207298431854221E-01   -4.2151434843897988E+01    6.9868242459007188E+00   -1.7710688101620729E+01   -1.3703453625061202E-01 \
               4.9828266255947300E+00    1.8583707076796355E+01    1.0636142843660032E+01   -3.7804111932089735E-01    3.7621233554904890E+01 \
              -1.5941616796177339E+01   -2.4637208083639885E+00   -2.0125147508388794E+00    1.0390101024319288E+01   -1.0754637682816537E+00 \
               1.0863171857950682E+01    1.5619566283401801E+01    6.4418300196004461E+00   -1.3507053176955846E+00   -2.5678992432136192E+00 \
              -8.0440348001649369E+00    1.5253295015878923E+00   -9.8550630958506478E+00    5.4520666044076771E+00   -7.2183302388188264E-01 \
               1.2996018428159262E+01   -1.4547508722209940E+01    1.5022018360102276E+01   -1.2088819654341782E+01   -4.6281031680487494E+00 \
              -2.8169437132129207E+01    3.7099081467344637E+00    3.9536713864472470E+00   -3.0478517181500091E+01    2.7213712341819896E+01 \
               2.2123393243072162E+00    3.1742015933872505E+01   -1.6387488915406314E+00   -5.1280251897193185E+00   -1.9677388725264308E+01 \
               6.8907202455688177E+00   -7.8174740324026786E+00    5.7349102104907161E+01   -2.6540289000246929E+01   -1.2008941374117015E+01 \
               1.9550035136172326E+00    2.0049463883036019E+01   -5.1262698767316621E+00    5.0962722116242936E+01   -1.8270509975859557E+01 \
              -2.2128438888082802E+00    2.4613417171847775E+01   -1.9266917567355943E+01    1.0882113997597314E+01   -2.3363265840008690E+01 \
               7.6971558751927187E+00    4.3398829339218308E+00   -9.5522826307950019E+00    3.1470763368798089E+01    1.5139550819877665E+00 \
               4.5736456227453829E+01   -4.4527456444229522E+01   -7.3857453651420322E+00    1.0510315798424051E+01   -6.1211738749732527E+00 \
              -4.5148277153757821E+00   -3.6292980080940329E+00    1.6003139331705857E+01   -9.9722501412744613E+00   -4.1449071396311989E+00 \
               7.4437230401439720E+00   -2.7096648476547651E+00    2.2330000498918547E+01   -6.8130013671665868E+00   -6.7028391973634385E+00 \
              -1.8786495029506838E+00    1.2603670543509850E+01    3.9482972217148458E+00    4.6825728028388474E+00   -2.1062010931206888E+01 \
              -1.1182840903748081E+01    3.8926727500420213E+01   -1.8157557435819140E+01    3.1147726534001192E+00    5.6573207872078042E+00 \
              -1.7695523044118229E+01    1.6168104689562405E+01   -2.7296780758936321E+00   -1.7043752466799429E+01    2.0341396705854544E+00 \
              -3.6029152244733197E+01    1.7558993851509641E+01   -2.0568363860052803E+00    4.7734787712568540E+01   -1.9346510661512557E+01 \
               9.0476955844671529E+00    1.4131376375943457E+01    1.9526701086636898E+01    6.4976652908809722E+00    1.4429512043159702E+01 \
               1.1365827260253168E+01    7.0819297906959209E+00   -3.2986321361111500E+01    2.2942771114849663E+01    1.3215298593856314E+01 \
               1.0560644936755340E-01   -1.5391990508282827E-01    4.4549011420714608E+00   -2.7264034030914821E+01    1.9383462453296811E+01 \
               5.3413564960166156E+00   -1.5648619196055249E+00   -1.4090866721063778E+01    3.1161112559546162E+00   -1.2962699550818183E+01 \
              -3.5111113196990398E+00    6.5997379428177574E+00    1.8741077858428834E+01   -3.3181797689575583E+00    7.4634963175986018E+00 \
              -3.4647517494813066E+01    1.7757895332627076E+01    7.2477283552676317E+00    9.3593414585816284E+00   -3.3451383771169358E+00 \
               7.8647021209559860E+00    2.8122837479555621E+01   -1.4385661677891813E+01    2.9169658718972760E+00   -1.1300198369871755E+01 \
              -2.1459723137774311E+01   -8.3860487379730149E+00    3.6805921406755935E+01   -3.5102369720763939E+01    2.1389483153698954E-01 \
               8.2690727963263644E+00   -9.5707709646019854E+00    9.1378917549741867E-01    2.3678956811064470E+01   -3.9920849645446474E+01 \
              -1.7364617434074102E+01    1.0218179961828211E+01    1.5878886173305302E+01   -4.0272261675571261E+00    1.5316559895385657E+01 \
              -3.0765444995937403E+00    2.5762227889733627E+00    5.9934906582262535E+01   -3.7299919618734627E+01   -2.3548924398419833E+00 \
              -4.7669261542820536E+01    2.8924701839933303E-01    8.3323724942171467E+00   -7.9547710889237608E+00    7.9999134381113484E+00 \
               4.0441894306809694E+00   -1.8045083827559477E+01    6.7256533086976296E+00   -1.0199322186216055E+00    2.3287412594008266E+01 \
              -1.2103019822323866E-03   -1.0361412021756915E+00    2.2409645051878964E+01   -3.5501677209366207E+01    1.1032366042633305E+01 \
               3.1088513703794469E+01   -7.2342004837930403E+01    8.6016138287256250E-01    1.0733804024938864E+01   -1.4128919170338255E+01 \
              -1.4739024392314957E+00   -1.5615268200474206E+01    4.2196438812307049E+00   -1.1547732150362055E+01   -1.5746137127624568E+01 \
               3.7837452018327106E+01   -3.0732355094606978E-01    4.1148345341025468E+01   -4.7010340552501305E+01   -4.9772962905405249E+00 \
              -7.3177367235941571E+00    8.5339839892119098E+00    1.3301270400730232E+00   -1.4680312065459185E+01   -1.3150865627397948E+01 \
               6.4818356599842604E+00   -1.4298716360660887E+01    6.8042181536343609E+00    6.5094869469132233E+00   -1.3630120411307785E+00 \
              -6.5469609921018774E+00    2.3551731845402242E+00   -1.8573281576667366E+01    2.9821057508702381E+01    3.7275569213263231E+00 \
              -7.0394276847750126E+00   -8.2325252059486989E+00   -8.5373150632237882E-01   -3.3177511180400017E+00    1.1431148678526137E+01 \
               2.1734854318253114E+00    1.4533795330791387E+01   -1.0203489036737190E+00   -1.2431743967642801E+00    1.4753618296366501E+01 \
              -2.7094147517162160E+01    4.3529294352680048E-01    9.1697076521498389E+00    8.3177997110360469E-01    6.9929395353517840E+00 \
              -6.8717165314095155E+01    5.1268016062832409E+01    3.5377486643203104E+00    3.5759104372348588E+01   -2.8981266586199773E+01 \
              -1.4387518853756895E+00   -7.4038047244040719E+00    1.4156329122991924E+01   -4.6507183572622690E+00   -8.1648180367448315E+00 \
               3.1141672722732645E+00   -3.1240525276290891E+00    1.2051320998970242E+01   -1.3344555721556391E+01    7.3197337550747061E+00 \
              -1.4721048689589303E+01   -1.8530137204416697E+01   -3.9701018312952328E+00    6.5492366590178799E+00   -2.0723127666215181E+01 \
              -5.1441053972739557E+00    1.6918373525336250E+01    5.6428920614421219E-01   -2.6722406495308428E+00    4.3880400032946774E+01 \
              -2.2017828939042307E+01    2.8171345535440442E+00   -3.3009335884524567E+01    1.6299195645319337E+01    9.3334514675497928E+00 \
               9.5304241958108875E+00    1.0597291044107099E+01   -1.5247751097440847E+01    6.7472862132014884E+00    3.2596470741746195E+00 \
               3.7789702339838727E-01   -3.8374404345010696E+01    2.7978787044959478E+01   -3.1929883351250834E+00    3.1279932064424116E+01 \
              -2.9831525795560250E+01   -1.0787510155604991E+00    2.2039263620596422E+01   -1.2098068016786529E+01    1.3292465980671921E+01 \
              -1.1999889249801029E+01    4.4448613532071093E+00   -2.3455826462090252E+00    3.1317936082887492E+01   -3.2134010070187394E+01 \
               3.3370048821560192E+00   -2.2656467835927931E+00   -1.0084344262988079E+01   -2.8593288390976643E+00   -1.7330079435312978E+01 \
              -3.8043678699983592E+00    2.8815713912827148E+00   -4.1884157576591324E-01   -1.4660968826133194E+01    1.7220054113068934E+00 \
               5.0090448635185680E+01   -1.5375468624180934E+01   -2.6798241455231762E+00    4.8316553100831108E+00   -2.1609836005783439E+01 \
              -1.9570460957843576E+00   -8.2954933213784852E+00   -4.6335215666808427E+00   -9.2188589548074820E+00   -3.5105265739726292E+01 \
              -2.3839227625741977E+00    3.0175300267863854E+00    3.2631556696479443E+01    8.3295521022615482E+00    2.1127611511476596E+00 \
               3.4534561494598393E+01   -5.7158555141248151E+00   -1.8127452324359465E+00   -2.4402645285580618E+01    4.4622438019758434E+01 \
              -9.2443921627282910E-01    2.1739933926034780E+01   -2.0548727977105052E+01    1.6694319576576298E+00   -1.7745537155536947E+01 \
               1.5184654919597707E+01    7.5411993133062269E+00   -5.8000902321690102E+00    9.9669421704487569E+00    1.3225371973816642E+00 \
              -1.1443531959161371E+01    1.8955557809661663E+01
         &END COORD
         &VELOCITY
              -5.2165422380059449E-05    4.5211308149107910E-04    2.4523166655558763E-04   -5.3249528108163196E-05 \
               5.2323244996835929E-05    1.2061170309076513E-04   -1.9921033749754164E-04    2.4268962362738214E-04   -3.3828178944262981E-05 \
               6.8610781325367943E-07   -2.5130720326658112E-04   -1.6731009440493311E-04   -4.3648980216810585E-05    3.6526964063152053E-04 \
              -3.0296929476929772E-04    7.6417766455309468E-05    1.4925369812060797E-04    1.1947353269982936E-04   -3.0128486133478718E-05 \
              -2.7776606107451755E-04    2.3730886156038842E-04    5.0744202316689749E-05    1.3765766772035721E-04   -1.1615523042278722E-04 \
              -5.5095163008328475E-05    2.9628546366550315E-04    3.9553151386174137E-04   -1.7101349025339612E-04   -7.3716370128704172E-05 \
              -2.9959323948702115E-05    8.3233332313053886E-05   -1.5730854792905656E-04   -3.7294272725901513E-04    1.3443840834556517E-04 \
              -2.0155990890084274E-04    8.7812660949178017E-05    1.1440937222978833E-04   -9.2329008924277078E-05   -8.1340934047932943E-05 \
              -5.3969886832126524E-05   -8.2645279881362016E-05   -2.0968832982516612E-04   -7.9795772797616865E-05   -9.6703115203865272E-05 \
               3.5523861811234507E-04    3.7715543597263076E-05    2.8088960216599337E-05    2.0715243831084633E-04    2.7981081652396387E-05 \
               3.3802112676241885E-04   -1.1573370072758839E-04    3.5765005592518731E-05    4.3383367059992815E-05   -1.6837276408063917E-04 \
               2.9918760867461118E-05   -6.1249277347955091E-05   -3.0451895932012582E-04   -9.9195760618719242E-05   -7.7348608593889807E-05 \
               2.3041737770244182E-04    1.6617179536775939E-06   -6.3274774025384996E-05    2.2069087294708327E-04    5.2218919929592721E-07 \
              -1.5344310080892367E-04   -4.5707772783782301E-04    1.8953462933133467E-05   -1.2955277020243249E-04   -8.3389243128791172E-05 \
               1.0989852557446806E-04    9.9182335929746558E-05    2.7016406728463629E-04    5.5274991538276852E-05    4.0816082760605321E-04 \
              -1.3221413045081499E-04    2.2853915606232009E-04   -1.2751185182196354E-04   -9.4896040842429557E-05   -2.5750637959967865E-05 \
              -3.1883836849482753E-04   -1.8464540282006007E-04    2.5468879995094407E-05   -1.8073670980257487E-04    4.2457184412642175E-04 \
               1.4767677790564418E-04    2.5549619825429104E-04   -1.1844215705115953E-04   -3.3727452417980823E-05    5.3996767252266833E-04 \
              -1.2469814171304738E-04    1.5618126706026241E-05   -2.4889387378880355E-04    1.5927885377892666E-04    8.1873582733288632E-05 \
               2.5978918187527780E-06   -3.1069063522248650E-04   -3.5346186101324140E-05    6.4466912175246350E-05    1.9656101407276635E-04 \
               5.8102073566916794E-05    2.8315753344819856E-04   -3.4442932585849746E-04   -7.2056869286335612E-05   -6.6640203169271309E-05 \
               5.2996344663449818E-05   -8.2933279180040184E-05   -2.0926599920125986E-04   -3.7558183616750703E-04   -1.8790511265121840E-05 \
               1.5969838918382278E-04   -5.0240112132524783E-05   -1.8167365926952565E-05   -1.5084323217797133E-05    2.5096859223323545E-05 \
              -2.3483748209639179E-05    3.2461532592494973E-04    1.5226994593550426E-04   -1.1845217359445794E-04    1.5709920035633160E-04 \
               3.4866104646289999E-04   -3.7200364908924085E-05   -2.5248060052582267E-04    1.5214092633932146E-04   -3.9311478552620728E-06 \
               2.1880625870794061E-04    3.6222081529190239E-05    1.5717257432176104E-04    2.0684977867280963E-04    2.6792437989100847E-04 \