&FORCE_EVAL
  METHOD Quickstep
  &DFT
    #CHARGE 1
    #LSD
    #MULTIPLICITY 2
    &PRINT
      &E_DENSITY_CUBE
      &END E_DENSITY_CUBE
    &END
    BASIS_SET_FILE_NAME BASIS_MOLOPT
    POTENTIAL_FILE_NAME GTH_POTENTIALS
    #POTENTIAL_FILE_NAME GTH_SOC_POTENTIALS
    &QS
      EPS_DEFAULT 1.0E-10
      METHOD GPW
      EXTRAPOLATION ASPC
      EXTRAPOLATION_ORDER 3
    &END QS
    &MGRID
      CUTOFF 400
      NGRIDS 5
    &END
    &SCF
      MAX_SCF 20
      SCF_GUESS RESTART
      EPS_SCF 1.0E-5
      &OT
        PRECONDITIONER  FULL_SINGLE_INVERSE
        MINIMIZER  CG
      &END
      &OUTER_SCF
        MAX_SCF 50
        EPS_SCF 1.0E-5
      &END
      &PRINT
      &END
    &END SCF
    &XC
      &XC_FUNCTIONAL PBE
      &END XC_FUNCTIONAL
    &END XC
    &POISSON
       PERIODIC XY
       POISSON_SOLVER ANALYTIC
    &END
  &END DFT
  &SUBSYS
    &CELL
A [angstrom] 7.042785 0 0
B [angstrom] 0  6.09925  0.
C [angstrom] 0.000000   0.   15.
       PERIODIC XY
    &END CELL
    &TOPOLOGY
     COORD_FILE_NAME ./S_M.opt.xyz
     #COORD_FILE_NAME ./xyz/C2H6_1L-PdGa_TiO2.xyz
     #COORD_FILE_NAME ./xyz/C2H6_2L-PdGa_TiO2.xyz
     COORDINATE xyz
    &END
    &KIND O
      BASIS_SET DZVP-MOLOPT-SR-GTH
      POTENTIAL GTH-PBE-q6
    &END KIND
    &KIND Ti
      BASIS_SET DZVP-MOLOPT-SR-GTH
      POTENTIAL GTH-PBE-q12
    &END KIND
    &KIND Pd
      BASIS_SET DZVP-MOLOPT-SR-GTH-q18
      POTENTIAL GTH-PBE-q18
    &END KIND
    &KIND Ga
      BASIS_SET DZVP-MOLOPT-SR-GTH-q13
      POTENTIAL GTH-PBE-q13
    &END KIND
    &KIND C
      BASIS_SET TZV2P-MOLOPT-GTH
      POTENTIAL GTH-PBE-q4
    &END KIND
    &KIND H
      BASIS_SET TZV2P-MOLOPT-GTH
      POTENTIAL GTH-PBE-q1
    &END KIND
  &END SUBSYS
&END FORCE_EVAL
&GLOBAL
  PRINT_LEVEL LOW
  PROJECT S_M
  #RUN_TYPE ENERGY # GEO_OPT, ENERGY, ENERGY_FORCE or MD, (no check: MC, TAMC, TMC, NEGF)
  RUN_TYPE MD
  WALLTIME 860000
&END GLOBAL
&END

! how to propagate the system, selection via RUN_TYPE in the &GLOBAL section
&MOTION
 &GEO_OPT
   OPTIMIZER BFGS ! Good choice for 'small' systems (use LBFGS for large systems)
   MAX_ITER  100
   MAX_DR    [bohr] 0.003 ! adjust target as needed
   &BFGS
   &END
 &END
 &MD
   ENSEMBLE NVT         ! sampling the canonical ensemble, accurate properties might need NVE
   TEMPERATURE [K] 300  ! The temperature in K used to initialize the velocities
   TIMESTEP [fs] 0.5    ! The length of an integration step
   STEPS 1000           ! The number of MD steps to perform 
   # GLE thermostat as generated at http://epfl-cosmo.github.io/gle4md 
   # GLE provides an effective NVT sampling.
   # https://gle4md.org/index.html?page=matrix
   &THERMOSTAT
     REGION MASSIVE
     TYPE GLE
     &GLE
       NDIM 5
       A_SCALE [ps^-1] 1.00
       A_LIST    1.859575861256e+2   2.726385349840e-1   1.152610045461e+1  -3.641457826260e+1   2.317337581602e+2
       A_LIST   -2.780952471206e-1   8.595159180871e-5   7.218904801765e-1  -1.984453934386e-1   4.240925758342e-1
       A_LIST   -1.482580813121e+1  -7.218904801765e-1   1.359090212128e+0   5.149889628035e+0  -9.994926845099e+0
       A_LIST   -1.037218912688e+1   1.984453934386e-1  -5.149889628035e+0   2.666191089117e+1   1.150771549531e+1
       A_LIST    2.180134636042e+2  -4.240925758342e-1   9.994926845099e+0  -1.150771549531e+1   3.095839456559e+2
     &END GLE
   &END THERMOSTAT
   &PRINT
     &ENERGY
        &EACH
           MD 20 ! print energy after each N (=20 here) MD steps.
        &END
     &END ENERGY
     &PROGRAM_RUN_INFO
        &EACH
           MD 20 ! Level starting at which this proprety is printed
        &END
     &END PROGRAM_RUN_INFO
     &TRAJECTORY
       &EACH
         MD 1
       &END EACH
     &END TRAJECTORY
     &VELOCITIES OFF
     &END VELOCITIES
     &FORCES OFF
     &END FORCES
     &RESTART_HISTORY
       &EACH
         MD 500
       &END EACH
     &END RESTART_HISTORY
     &RESTART
       BACKUP_COPIES 3
       &EACH
         MD 1
       &END EACH
     &END RESTART
   &END PRINT
 &END
&END

#&EXT_RESTART
! name of the restart file to be read
# RESTART_FILE_NAME MET-1.restart
#&END