&GLOBAL
  PRINT_LEVEL LOW
  ! the project name is made part of most output files... useful to keep order 
  PROJECT S_M
  ! various runtypes (energy, geo_opt, etc.) available.
  #RUN_TYPE ENERGY # GEO_OPT, ENERGY, ENERGY_FORCE or MD, (no check: MC, TAMC, TMC, NEGF)
  RUN_TYPE MD
  WALLTIME 860000
&END GLOBAL

&FORCE_EVAL
  ! the electronic structure part of CP2K is named Quickstep
  METHOD Quickstep
  &DFT
    ! basis sets and pseudopotential files can be found in cp2k/data
    BASIS_SET_FILE_NAME BASIS_MOLOPT
    POTENTIAL_FILE_NAME GTH_POTENTIALS
    #POTENTIAL_FILE_NAME GTH_SOC_POTENTIALS
    
    ! Charge and multiplicity
    #CHARGE 0
    #MULTIPLICITY 1
    #LSD
    
    &MGRID
      ! PW cutoff ... depends on the element (basis) too small cutoffs lead to the eggbox effect.
      ! certain calculations (e.g. geometry optimization, vibrational frequencies,
      ! NPT and cell optimizations, need higher cutoffs)
      CUTOFF [Ry] 400 
      NGRIDS 5
    &END
    
    &QS
      ! default threshold for numerics ~ roughly numerical accuracy of the total energy per electron,
      ! sets reasonable values for all other thresholds.
      EPS_DEFAULT 1.0E-10
      ! use the GPW method (i.e. pseudopotential based calculations with the Gaussian and Plane Waves scheme).
      METHOD GPW
      ! used for MD, the method used to generate the initial guess.
      EXTRAPOLATION ASPC
      EXTRAPOLATION_ORDER 3
    &END QS
    
    &POISSON
       PERIODIC XY ! the default, gas phase systems should have 'NONE' and a wavelet solver
       POISSON_SOLVER ANALYTIC
    &END
    
    &PRINT
      ! at the end of the SCF procedure generate cube files of the density
      &E_DENSITY_CUBE ON
      &END E_DENSITY_CUBE
    &END
    
    ! use the OT METHOD for robust and efficient SCF, suitable for all non-metallic systems.
    &SCF
      MAX_SCF 20 # 20 or 30
      SCF_GUESS ATOMIC ! can be used to RESTART an interrupted calculation
      #SCF_GUESS RESTART
      EPS_SCF 1.0E-5 ! accuracy of the SCF procedure typically 1.0E-6 - 1.0E-7
      &OT
        ! an accurate preconditioner suitable also for larger systems
        PRECONDITIONER  FULL_SINGLE_INVERSE
        ! the most robust choice (DIIS might sometimes be faster, but not as stable).
        MINIMIZER  CG
      &END
      &OUTER_SCF ! repeat the inner SCF cycle 50 times
        MAX_SCF 50
        EPS_SCF 1.0E-5 ! must match the above
      &END
      &PRINT
      &END
    &END SCF
    
    ! specify the exchange and correlation treatment
    &XC
      ! use a PBE functional 
      &XC_FUNCTIONAL PBE
      &END XC_FUNCTIONAL
      ! adding Grimme's D3 correction (by default without C9 terms) 
      &VDW_POTENTIAL
         POTENTIAL_TYPE PAIR_POTENTIAL 
         &PAIR_POTENTIAL
            PARAMETER_FILE_NAME dftd3.dat
            TYPE DFTD3
            REFERENCE_FUNCTIONAL PBE
            R_CUTOFF [angstrom] 16
         &END
      &END VDW_POTENTIAL
    &END XC
  &END DFT
  
  ! description of the system
  &SUBSYS
    &CELL
       A [angstrom] 7.042785 0 0
       B [angstrom] 0  6.09925  0.
       C [angstrom] 0.000000    0.   15.
       PERIODIC XY
       #! unit cells that are orthorhombic are more efficient with CP2K
       #ABC [angstrom] 7.042785 6.09925 15.000
    &END CELL
    
    ! atom coordinates can be in the &COORD section,
    ! or provided as an external file.
    &TOPOLOGY
     #COORD_FILE_NAME ./S_M.opt.xyz
     #COORD_FILE_NAME ./xyz/C2H6_1L-PdGa_TiO2.xyz
     COORD_FILE_NAME ./xyz/C2H6_2L-PdGa_TiO2.xyz
     COORDINATE xyz
    &END
    
    ! MOLOPT basis sets are fairly costly,
    ! but in the 'DZVP-MOLOPT-SR-GTH' available for all elements
    ! their contracted nature makes them suitable
    ! for condensed and gas phase systems alike.
    &KIND O
      BASIS_SET DZVP-MOLOPT-SR-GTH
      POTENTIAL GTH-PBE-q6
    &END KIND
    &KIND Ti
      BASIS_SET DZVP-MOLOPT-SR-GTH
      POTENTIAL GTH-PBE-q12
    &END KIND
    &KIND Pd
      BASIS_SET DZVP-MOLOPT-SR-GTH-q18
      POTENTIAL GTH-PBE-q18
    &END KIND
    &KIND Ga
      BASIS_SET DZVP-MOLOPT-SR-GTH-q13
      POTENTIAL GTH-PBE-q13
    &END KIND
    &KIND C
      BASIS_SET TZV2P-MOLOPT-GTH
      POTENTIAL GTH-PBE-q4
    &END KIND
    &KIND H
      BASIS_SET TZV2P-MOLOPT-GTH
      POTENTIAL GTH-PBE-q1
    &END KIND
  &END SUBSYS
&END FORCE_EVAL

! how to propagate the system, selection via RUN_TYPE in the &GLOBAL section
&MOTION
 &GEO_OPT
   OPTIMIZER BFGS ! Good choice for 'small' systems (use LBFGS for large systems)
   MAX_ITER  100
   MAX_DR    [bohr] 0.003 ! adjust target as needed
   &BFGS
   &END BFGS
 &END GEO_OPT
 
 &MD
   ENSEMBLE NVT         ! sampling the canonical ensemble, accurate properties might need NVE
   TEMPERATURE [K] 300  ! The temperature in K used to initialize the velocities
   TIMESTEP [fs] 0.5    ! The length of an integration step
   STEPS 1000           ! The number of MD steps to perform 
   # GLE thermostat as generated at http://epfl-cosmo.github.io/gle4md 
   # GLE provides an effective NVT sampling.
   # https://gle4md.org/index.html?page=matrix
   &THERMOSTAT
     REGION MASSIVE
     TYPE GLE
     &GLE
       NDIM 5
       A_SCALE [ps^-1] 1.00
       A_LIST    1.859575861256e+2   2.726385349840e-1   1.152610045461e+1  -3.641457826260e+1   2.317337581602e+2
       A_LIST   -2.780952471206e-1   8.595159180871e-5   7.218904801765e-1  -1.984453934386e-1   4.240925758342e-1
       A_LIST   -1.482580813121e+1  -7.218904801765e-1   1.359090212128e+0   5.149889628035e+0  -9.994926845099e+0
       A_LIST   -1.037218912688e+1   1.984453934386e-1  -5.149889628035e+0   2.666191089117e+1   1.150771549531e+1
       A_LIST    2.180134636042e+2  -4.240925758342e-1   9.994926845099e+0  -1.150771549531e+1   3.095839456559e+2
     &END GLE
   &END THERMOSTAT
   #ENSEMBLE NVT
   #STEPS 5000
   #TIMESTEP 0.5
   #TEMPERATURE 298
   #&THERMOSTAT
   #  TYPE CSVR
   #  REGION MOLECULE
   #  &CSVR
   #    TIMECON [fs] 50.
   #  &END CSVR
   #&END THERMOSTAT
 &END MD
 
 &PRINT
   &TRAJECTORY
     &EACH
       MD 1
     &END EACH
   &END TRAJECTORY
   &VELOCITIES OFF
   &END VELOCITIES
   &FORCES OFF
   &END FORCES
   &CELL
     &EACH
       MD 20
     &END EACH
     COMMON_ITERATION_LEVELS 3
   &END CELL
 &END PRINT
&END MOTION

#&EXT_RESTART
! name of the restart file to be read
# RESTART_FILE_NAME S_M-1.restart
# RESTART_DEFAULT F
# RESTART_POS 
# RESTART_VEL
#&END
