 # Version information for this restart file 
 # current date 2011-02-04 14:07:23.638
 # current working dir /homes/sp/teo/My_Exercises/UREA/Runs/RUN01_EQUIL
 # Program compiled at                              Wed Feb  2 18:55:22 CET 2011
 # Program compiled on                                                 bladeppc7
 # Program compiled for                                           Linux-ppc7-xlf
 # Last CVS entry                     cp2k_info.F/1.525/Wed Feb  2 17:40:21 2011
 &GLOBAL
   PRINT_LEVEL  LOW
   PROJECT_NAME UREA-ZW
   RUN_TYPE  MD
 &END GLOBAL
 &MOTION
   &MD
     ENSEMBLE  NPT_I
     STEPS          100000
     TIMESTEP     4.9999999999999994E-01
     STEP_START_VAL          100000
     TIME_START_VAL     4.9999999999949949E+04
     ECONS_START_VAL     0.0000000000000000E+00
     TEMPERATURE     2.9800000000000000E+02
     &BAROSTAT
       PRESSURE     1.0000000000000000E+00
       TIMECON     9.9999999999999986E+01
       &VELOCITY
            -2.4522494714589562E-07
       &END VELOCITY
       &MASS
             4.2677467810919508E+07
       &END MASS
       &THERMOSTAT
         TYPE  NOSE
         &NOSE
           LENGTH               3
           YOSHIDA               3
           TIMECON     9.9999999999999986E+01
           MTS               2
           &COORD
                 8.0236348195191184E+01   -8.9418293830285869E+00    3.1936766334114814E+01
           &END COORD
           &VELOCITY
                 3.7749346192265140E-04   -1.1440296585247898E-04   -2.7282221105229981E-04
           &END VELOCITY
           &MASS
                 1.6129050571020223E+04    1.6129050571020223E+04    1.6129050571020223E+04
           &END MASS
           &FORCE
                -5.8350895913241702E-08    8.3991299944243200E-08   -4.5421975254261592E-08
           &END FORCE
         &END NOSE
       &END THERMOSTAT
     &END BAROSTAT
     &THERMOSTAT
       TYPE  NOSE
       REGION  MOLECULE
       &NOSE
         TIMECON     9.9999999999999986E+01
         &COORD
               3.1917805329595694E+00   -1.3609698888436872E+01    3.3719594116342016E+01    4.9011240505564286E+00 \
               1.6577194502446090E+01   -2.3120003711982260E+01   -7.3365145992444827E-02   -6.7861667315001135E+00    1.1131752249410500E+00 \
               9.8462370486792294E-01    1.3904775659830630E+01   -1.2845126799000271E+01    2.4308873609401696E+00   -1.8969227681788517E+01 \
               7.0355258725717214E+00   -1.4146849343425725E+01    6.6699922519794100E+01   -3.1280501748534107E+01    5.0258300736344252E-01 \
               5.1668215510328551E+01   -2.9702331843267906E+01    3.9710062371277721E+00   -2.5119581934330601E+01    4.1359082863591112E+01 \
               2.1001271433278905E+00   -1.8856713796112356E+01   -8.5786504540920632E+00    2.5769954852080779E+00    3.8097431183003647E+00 \
              -1.1376201694670073E+01    2.6719595016255164E+00   -2.9134802267288009E+01    1.6952086118276537E+01    4.0889851715949552E+00 \
              -3.6801872083723111E+01    1.3978323610661549E+01   -2.3946606674302306E+00   -6.5413569761444439E+00    1.1526577523739045E+01 \
              -1.6274830006187855E+00   -5.9492439582990741E+01    4.1787270125914738E+01    6.0416818633854348E+00   -8.4488084316608152E+00 \
              -1.9625255280706103E+01   -5.4505396473608076E+00   -1.6299185170473599E+01    1.3674799403304871E+01   -6.1254341937550443E+00 \
               4.1170468017260164E+00    2.3749980562357962E+00   -4.1972493071050359E+00    1.8284761986414590E+01   -1.6551293392738156E+01 \
              -1.8553238983732814E-01    3.9108061447187147E+01   -8.1263169676406886E+00   -2.9394029114439189E-02   -5.6431687234096728E+00 \
               1.2069508697521547E+01   -5.5171861880708954E+00   -4.7885124805725718E+00   -4.9530630062500908E-01    3.0512554228141346E+00 \
               5.8284020918751169E+00   -1.8124527167695458E+01   -3.8712872485467309E-01    3.0889996565867204E+01   -2.1389285834756780E+01 \
              -9.5018111662058526E+00    2.0996500788906218E+01   -1.0343509486768074E+01    3.2142544244049724E+00    8.6855623174477934E+00 \
               1.4279576629056224E+01    1.4016839052077230E+00    7.9199940238690152E+00   -3.3417881641936114E+00    3.4485647071429476E-01 \
              -2.5961695700311910E+01   -9.7447560803869315E+00    5.0853265488207580E+00    1.4181463162428173E+01    8.7676792574124485E-01 \
              -3.9313928819066919E+00   -3.1899265275959831E+01    2.3560556531682277E+01    3.5261746856977432E+00   -4.8523910439181414E+01 \
               5.6569689436244900E+01    6.6502586228721272E+00   -3.4421834376515882E+01    2.0638359837441683E+01    3.3258033112192673E+00 \
              -1.9252811756812623E+01    2.4647832824507539E+01    7.4013431125367877E+00    5.0568601379452645E+00    8.3170744561189487E+00 \
              -3.8612119574830142E+00   -9.1609409831161184E+00   -1.0447571720509606E-01    1.7942503478818677E+00    1.8233840835473256E+01 \
               8.2998448107779599E-01    5.7666899141998673E+00   -1.8721415400833433E+01    3.1501046553833614E+01    8.4104119252767695E-01 \
               3.9990058999783514E+01   -2.6594653022519015E+01   -1.0614701368932169E+01    3.5206608608667892E+01   -1.1861782648306416E+01 \
               9.1485691703470462E-01    5.0061649848295929E+01   -2.7084304264212271E+01   -3.0890323554795036E+00    5.6097733644865556E+01 \
              -3.0475210267443455E+01    4.5656156136019694E+00    2.9012304253336477E+01    3.5642187657245179E+00   -5.8037591457286490E+00 \
               1.2153280642122258E+01   -1.2510139382760451E+01   -9.3343120395997534E+00    2.9183740680296840E+01   -1.5921995660232964E+01 \
              -4.5203876082396652E+00   -8.1939743621862675E+00   -5.8203064880205471E+00    1.4804644414829049E+01    1.9876674751115139E+01 \
              -1.8015841099949242E+01    5.0058717202857628E-01   -4.2421139847441696E+00    1.0618467014952087E+01   -9.9794737013375856E-01 \
               2.9417054310101388E+01   -3.8267799483581513E+01    2.8034096873360035E+00    1.2215059661192958E+01    1.4001005675030687E+01 \
               5.5529217495167227E-01   -1.2230596260019551E+01    6.9833845462438653E+00   -7.2959323716882265E+00   -1.7699599029748715E+01 \
               1.3992298548489165E+01   -6.1812924548216774E-01    2.4228396007245440E+01   -3.1411715434861762E+01   -1.2708372777251119E+01 \
              -6.5965119331753517E+00    2.3983272602097195E+01   -7.4863996410179223E-01    2.5260350536648357E+01   -1.6282068929284229E+01 \
              -2.1261244439614400E+00   -7.6795244636308535E+00    3.4126394726371167E+01   -6.9781750634281936E+00    3.4097871049681245E+01 \
              -3.2896540906248070E+01   -1.7915196263355104E+00    1.3599827814154077E+01   -1.1005463975403810E+01   -1.5230455048775184E+00 \
              -8.1740698769611086E-01    2.0119592177528926E+01   -9.1420559567092674E+00    1.9019052617401996E+01    2.2573964214731269E+01 \
              -8.4366905339566873E+00    3.2635706296624875E+01   -9.0327319598698672E+00    2.9094211457246386E+00   -3.3179872802029465E+01 \
               2.6328847855578367E+01    6.3059000820152882E+00   -4.8297608592519900E+01    3.6737836841381338E+01   -2.2490404426428019E+00 \
               1.6947209189051279E+01   -5.8078210156774652E+01    5.0696766097672539E+00    3.7402625155410767E+01   -2.6896414963879955E+01 \
              -1.3098367992243836E+00   -3.1207965242408399E+01    4.1178305390243672E+01    2.9927987039795565E+00    2.5830589391234797E+00 \
               8.6549373290336473E-01    9.6800214874859609E+00   -1.6762334142750966E+01   -4.1508477055541775E+00    1.4393942009975242E+00 \
               6.6436033393335929E+00   -1.2322049621923604E+01    9.7240504856774095E+00   -1.3638470351657665E+01    2.0460936836138522E+01 \
              -4.7201916142435270E+00   -1.2549215148510752E+01    3.0963108764370531E+00   -1.9677177664200143E+00   -2.0849742636745944E+01 \
              -2.5602808932382977E+00   -7.4597378244944201E-01   -1.3201811152704652E+01   -2.5517416084218127E+01   -1.1229499849663108E+01 \
              -2.2675503351361144E+00    1.9754106701473486E+01   -1.9215967014614994E+00    5.6440798017069795E+00    1.1861581635588776E+01 \
               6.1676481739889102E+00   -1.1595594215511214E+01    2.0339768217912059E+01   -3.2277018035256861E+00   -2.5679690712893329E+01 \
               1.7152777077117104E+01   -1.0885535640544994E+01    2.3461485224620757E+00    5.3998358375929891E+00   -1.5865542683740728E+00 \
              -9.7727556553033939E+00   -3.6923198456562001E+00    6.6571358225398214E+00    3.2187602199192429E+00    9.2418829353869274E+00 \
               1.2528484112942064E+00   -1.1385836910353760E+01   -8.9047003761544707E-01   -3.0165515369127998E+00    1.1602525479502617E+01 \
              -4.9969668830429839E+01    2.2837873572218030E+00    9.2861761801693987E+00   -1.8922511909844356E+01   -5.2770887574566760E+00 \
              -5.9544640228496945E+01    3.4355507358357094E+01   -3.9260508712889921E+00    3.8708179963561555E+01   -1.1218066507062954E+01 \
               7.9147943550970616E+00    2.5997046282912819E+01   -2.9316945353319756E+01    4.8441466564525726E+00   -4.3678060722174813E+01 \
               3.4843246067436411E+01    6.8371083250245093E+00   -1.6293847324656483E+01    8.1844756237822729E+00   -5.4836653879360790E+00 \
               1.4117865346621425E+00    1.5929284258614297E+01   -7.7842087794668657E+00   -1.0039998012926153E+01    3.2283600740771242E+01 \
               1.8920182173985793E+00   -4.9368314834027750E+01    4.0169269687889191E+01    1.1723440189438650E+00   -2.0085893105299753E+01 \
               1.6879518703134153E+01   -1.3602671631746468E+01    2.9810971203008133E+01   -1.0183147597977809E+01    3.7954899158427362E+00 \
               4.2218129741824688E+00    6.0809666431574714E+00    6.3889893241342106E+00   -1.1320307875272219E+01   -1.7577377394473814E+00 \
               5.0192108858112485E+00   -1.6063284521118664E+00    1.0331143583022687E+01    1.4352680576507024E+00   -2.0464020375174066E+01 \
               2.0113456131512148E+01   -2.6290186288003796E+00    7.1066293770082067E+00    6.9435563917335641E-01    2.3463293598287431E+00 \
              -1.9120462345472685E+01    4.5762895539756244E+01    6.9299517142528311E+00    4.0937386014207135E+01   -2.7817337546332261E+01 \
               5.5488877389807447E+00    1.2760502150487051E+01   -1.0592648555012346E+01    6.1207623816111516E+00   -6.9292214627789306E-01 \
              -3.6934862601558809E+00   -1.2208513442572649E-01   -6.7260754426196829E+00    3.0255315625213790E+01    8.0670387383429905E+00 \
              -8.4548219749035702E+00    2.3595424567678215E+01   -2.2489916038594520E+00    3.0130682333904794E+01   -2.9476134910549089E+01 \
              -1.3769811186510649E+01    2.6482637852999041E+01   -5.4504324894553964E+00   -4.3230685071900981E+00   -2.4364484525343844E+01 \
               1.3124144176268789E+01   -1.7577265988585595E+00   -4.5197087289063916E+01    1.9199162092974031E+01    3.0191438607538639E+00 \
              -9.4624023683305403E+00   -9.8532412372382616E+00   -2.8179388807898359E-01    7.0693592593495485E+00    1.8453605932181514E+01 \
              -7.1079552539978872E+00   -3.1931906016906002E+01    5.3510402181097568E+01   -3.3118035931355330E+00   -1.6105151445032959E+01 \
              -9.0126808979396671E+00    1.3298386359409481E+01   -1.6710051511570015E+01    5.0597641167406389E+00    4.5903874583653215E+00 \
              -4.6801774164502461E+01    4.0802849505377857E+01   -3.7143144282528020E+00    3.1134353552073737E+00   -9.5359319382392229E+00 \
               4.3507604723367326E+00   -2.3085525521458244E+01    1.9685847775258924E+01    1.2414588266745801E+00   -3.5587970358465846E+01 \
               3.1810972459401437E+01    7.4334522318982472E+00    8.9922453999269214E-01    6.0134718047377147E+00    4.3458318749223492E+00 \
              -4.4458658707791024E+01    3.1093162560667249E+01    4.1268683845544479E-01    3.9423627203559221E+01   -4.5383361600224418E+01 \
              -2.5889574711745964E+00   -4.0270889267742191E+01    4.6038451129619588E+01   -7.2111514641653525E+00    3.7724148023894678E+01 \
              -3.5301302065041504E+01    4.1293528697012780E+00    1.0811721007417368E+01   -1.7279120722687505E+01   -2.3385565417961818E-01 \
               4.3183253750458626E+01   -4.6681566664142970E+01   -2.0695297266376591E+00    3.0386360852594368E+01    5.3185982484265590E+00 \
               2.3266286219348853E+00   -4.5180956813548974E+01    6.0885649906995782E+00    1.3290772688722994E+00    3.7771378061765567E+01 \
              -3.5658852105782074E+01    4.3354808998197560E+00   -4.6189553618106798E+00   -1.5401822838321031E+01    4.8148167940649396E+00 \
              -9.8416909414198344E+00    2.6930003008433431E+01   -3.8748943852445903E+00    4.2880436815796436E+01   -3.4610176651079541E+01 \
              -4.0953704129289514E+00    7.4882293448832504E+00   -8.2581679542842625E+00    9.7783966732653891E+00   -3.6644690733391954E+01 \
               3.5424872718544961E+01   -2.1199803570938647E+00    1.5870139944080330E+01   -4.4923755924946157E+01   -1.2480918004049331E+00 \
               1.6887126602934217E+01    1.9857973716393836E+01    5.9153755605231702E+00   -1.3226354960008889E+01    5.1720614656890547E+00 \
               1.3073402650914954E+00    2.3680082849241662E+00    4.3332548514622662E+00    4.2534170669208633E+00    5.2752530387026880E+01 \
              -5.4385950763830863E+01    3.9156992747212973E+00    3.9875706655845015E+01   -4.4599934412718831E+01    4.2165652749826910E+00 \
              -2.6749464375496895E+01    4.0899785045851944E+00   -4.4025407220088706E+00    1.3973420373338532E+01   -2.6277717458389660E+01 \
              -2.0480809765560579E+00   -2.8607543068846351E+00   -1.5894998140390163E+01    5.3616290746364816E+00   -2.0023587118662807E+01 \
               2.4528849734749759E+01    1.0597326297063242E+01   -7.3226990726792609E+00    9.7140628778396749E+00    9.0013486662434428E+00 \
               2.6903696486702568E+01   -7.8190242115850923E+00   -1.6371224792049478E+01   -9.3717954058216701E-01    2.7750697561650956E-02 \
              -4.0474685611553323E+00   -1.6623319299358045E+01   -4.5485863862907738E+00    6.0402479432217504E-01   -1.8773263820646235E+01 \
               3.0103085009149812E+01   -1.1037069490058242E+01    1.7489868721860830E+01   -1.7787694747762185E+01    2.1895971666887633E+00 \
               1.8158246469690937E+01   -6.8549821147034540E-01   -6.1667472045003269E+00   -1.0295468127886158E+01    2.5889225877079955E+01 \
               5.7696808389356171E+00    2.7671860356909111E+01   -1.0294415737412139E+01    5.4550971323203798E+00    3.4805000607978435E+01 \
              -5.1813169264589263E+01    5.3712184490973980E-01    4.1209381841356347E+01   -2.6818620802744800E+01   -3.9744218799369011E+00 \
              -1.7606558320209089E+00    9.8800756103129075E+00    1.1561187361387050E+01   -1.8807658348688321E+01    1.2011555222550516E+00 \
              -9.0599818461102313E+00    2.8874837783556573E+00    6.7836950697372398E+00    3.2232732861499374E+00    1.2779762533077150E+01 \
              -2.3480479881598413E+01    8.5305137393826502E+00    2.1631807582041382E+01   -2.4127550378690731E+01   -6.8954576590009129E+00 \
               3.1152877673485939E+01    1.4861911205039336E+01    2.6598080759520366E+00   -2.1861694918527405E+01    1.8105907190991061E+01 \
               7.1162637284705266E+00   -4.4246204540082923E+00    2.7043141053205071E+00   -5.9177663724929266E+00    1.2356058539360550E+01 \
              -1.3449343775041678E+01    6.9887471854360497E+00    4.5048010148035811E+00    1.4181027668377777E+01    6.3248216393823293E+00 \
              -2.7386419148310640E+01    1.8490723777114997E+01   -7.2321381681036616E+00    2.9546028380820516E+01   -5.4106560063606736E+01 \
               9.1688360590321132E+00    2.7339692854739219E+01   -1.7018936291530874E+01   -2.9559920836445039E+00   -1.0156051719356669E+00 \
               3.3664373456026122E+00    2.8151836898453695E+00   -2.1938713535912655E+01   -4.7883133886233136E+00   -4.7877664979414378E+00 \
               3.6250775557412354E+01   -2.9071294352097169E+01   -6.9830429640146967E+00   -3.7652493821957982E+01    1.8037965948767368E+01 \
              -5.7139300947597684E+00    3.2733025856307179E+01    1.5875100124016505E+01   -3.7988490643208572E+00    6.4534008728240593E+01 \
              -5.4919171372232753E+01   -1.4322647644130093E+01   -2.0799263601457636E+01    2.4183921880929788E+00   -2.4774446078686738E-01 \
              -1.8973087051815781E+01   -6.9000928504504824E+00    2.5254285480753786E+00   -1.5871303634111491E+01    2.5968192641058398E+01 \
              -1.2787804536409773E+01    1.0332133884535020E+01   -4.0479197863629759E+00    9.2995162865969867E+00   -5.2909411784904719E+01 \
               6.4086394521003243E+01    5.7304284282318607E-01   -3.7985842332718645E+00   -1.2056316461181849E+01    8.3158931481659888E+00 \
               3.5811269313694474E+01   -2.3802589232976377E+01   -3.5554640348837587E+00   -1.8642859713679726E+01    1.1660445180261696E+01 \
               4.0483606986485610E+00   -6.4531158450440862E-01   -3.4261168924522849E+01   -7.5929885468740271E-02   -7.4429214139818267E+00 \
               8.1385916835932459E+00   -5.6720414429357460E+00   -1.7159986070660981E+01    1.0334913088598945E+01    6.1370277710351875E+00 \
              -4.5238541271107145E+01    2.7841321609184536E+01   -1.2576841499927001E+01    1.8329727415179082E+00   -9.7925569520214211E+00 \
               4.0690187840249331E-01    4.1658511767404187E+00   -3.1042520827613405E+01    2.4914623225668859E+00    1.9772392178501484E+01 \
              -2.7757219335478023E+01    5.6819961742598721E+00    1.9475191506776957E+00   -5.7065084903961942E+00    4.4265091984010487E+00 \
               3.2220058827251492E+01   -1.7269455135597884E+01    5.5672635864612170E+00    3.6207502016770214E+01   -4.7386527497434770E+01 \
               9.7785159953987648E+00   -2.1120634244156051E+01    8.9015759247516115E+00    8.6133768905455455E+00    1.8247625871827235E+01 \
               6.4196699311308896E+00   -3.2946022759974110E+00    4.0996555684279095E+01   -2.5636044062209578E+01   -4.5747556758067240E+00 \
              -6.1409617872669520E+00   -3.1334914822754303E+01    4.3275674052696367E+00   -1.8620065246334093E+01    9.1798225902575350E+00 \
               4.7848794164608277E+00    1.8842716659140283E+01    1.2762569112690539E+01    9.5188582718381587E-01    2.9969855785143281E+01 \
              -1.4462007632207397E+01   -4.9556651267410166E+00   -1.9917880752682490E-01    4.2143489862103261E+00    5.8326777559891252E-01 \
               1.4999622307773819E+01    5.5130276937896028E+00    3.8527746048931082E+00    5.6827539123473203E+00    9.2375216853148298E-02 \
              -8.2074317584163587E+00    3.1680377879974646E+00   -1.0046452125993637E+01    6.3508256033250339E+00    1.1692767633658780E+01 \
              -1.1625248055399278E+00   -1.3273901143682258E+01    1.9469044591093954E+01   -1.9308635550108477E+01   -2.3939684220772244E+00 \
              -1.5586181028181512E+01   -5.1187834948306865E-01    4.1253837793752774E+00   -3.5536473077466226E+01    3.1514024171926469E+01 \
               9.8660643226277589E-01    2.7815666385110926E+01   -3.3146156817712251E+00   -2.7817359951120437E+00   -1.2245297832779507E+01 \
               4.1720198840019505E+00   -6.5345810269677687E+00    4.7047753432367607E+01   -1.1657208146591655E+01   -6.8755168134122995E+00 \
               6.0572159064486399E+00    1.0280682988279898E+01   -6.0975396037666671E+00    4.4706938161090505E+01   -1.9430458856411601E+01 \
              -1.5178751095767524E+00    2.2221370495664456E+01   -1.8837863818435562E+01    1.2122928856055957E+01   -1.9548376236013954E+01 \
               5.0702754104721599E+00    2.3029760068797933E+00   -7.4133816688884853E+00    3.2676732754627757E+01    5.9917049088576080E-01 \
               2.8999138140108077E+01   -3.1705189643430508E+01   -6.9686677485601036E+00    9.0478645421119435E+00   -6.7639188224704441E+00 \
              -5.1902778992720107E+00    5.8403303290507766E+00    2.5474294485523870E+00   -5.1025754425062537E+00   -5.8185611793142344E-01 \
               5.2795639366726252E+00   -3.8085039802450295E-02    2.7110833076889902E+00    4.8915711323159918E+00   -5.1369371028064403E+00 \
              -5.3450994988660272E-01    1.5586756811120596E+01    4.9838654212681197E+00   -1.1713239978773771E+00   -2.4999675886775989E+01 \
              -1.1972085437589021E+01    4.8264438787770800E+01   -2.2125967760987344E+01    4.3007291623081452E+00   -5.5197827056845350E-01 \
              -7.5671518784505105E+00    1.2758831812918165E+01    8.2378263549696540E-01   -1.6579236072833943E+01    1.6791945621354772E-02 \
              -2.4486780704139576E+01    2.0652917996604828E+01   -3.6414810509392570E-01    3.7244371170719518E+01   -7.5767990628568933E+00 \
               7.2500089331016087E+00    1.0453528550391059E+01    2.2656324229968295E+01    3.4029239058688892E+00    1.6104680152478096E+01 \
               1.0933215788088290E+01    3.6068511652853728E+00   -3.2466530900004337E+01    2.2973981168631486E+01    6.7458666709958885E+00 \
               1.4182841389892760E+01    1.1482585593924963E+00    6.2494348180003572E+00   -3.0310023644178543E+01    1.6655193198640823E+01 \
               3.3310306084320089E+00   -3.2854711059219888E+00   -9.4729627863833628E+00    1.5286822535202260E+00   -2.4636989427085871E+00 \
              -9.1897073710770538E+00    6.4308604997995245E+00    2.3551191827088299E+01   -6.4583171203197605E+00    5.4643701863987379E+00 \
              -2.8118029342944627E+01    9.8247955975681034E+00    6.0130024335682171E+00    9.4751458423558184E+00   -1.1724465802945222E+01 \
               4.3399759057823619E+00    2.1887421075244550E+01   -1.2200975227374222E+01    2.1332207627128663E+00   -2.1877784691861525E+01 \
              -1.6470432622007209E+01   -7.2790761701720035E+00    3.0600239390809868E+01   -2.5156100181964675E+01    2.6162168789575193E+00 \
              -2.9992170748647231E+00   -9.0146215915916486E+00    1.2374161141649424E-01    1.9296995484814435E+01   -3.3732781375905510E+01 \
              -1.4179432725223693E+01    8.7690994540050458E+00    8.9003751949562950E+00   -6.8409322349353907E+00    3.4049663254075324E+00 \
               8.7135506395750006E+00    3.6826236910310134E-01    5.5305603968265977E+01   -3.1205656457058097E+01    1.4188877110733988E+00 \
              -5.1519085892520621E+01    8.9618681627070593E+00    6.0403590283741639E+00   -1.5160094925291070E+01    1.5632973855117713E+01 \
               3.8784635447928348E+00   -1.5894365970214853E+01    4.7785569227143414E+00   -3.0484375564706429E-01    3.2534855777704436E+01 \
              -7.8961940029336439E+00   -9.0166170835389914E-01    2.8149332486949810E+01   -4.0707379591003630E+01    8.4544643659463574E+00 \
               3.0494952852533537E+01   -6.0883418219787806E+01    4.4247658319919010E+00    4.1046035650333268E+00   -1.1702420751057499E+01 \
              -4.8255629227285937E+00   -1.2679591366333421E+01    4.0467315205361185E+00   -5.9420400346800113E+00   -2.5246881863791440E+01 \
               2.7314411006708944E+01   -2.0332884231866491E-01    4.1437248724822155E+01   -4.7417989739921218E+01   -2.8528972668414991E+00 \
              -9.1590044391399825E+00    8.3247265419736891E+00    3.9958930782558735E+00   -1.2020254317507115E+01   -4.7597086875209742E+00 \
               3.1641886099165837E+00   -6.3436655198365277E-01   -1.0905817493239523E+01    8.3811625618812222E+00    7.1761169299919949E+00 \
              -1.9991780382654930E+01    4.2919229109268446E+00   -6.9604528744900946E+00    2.2712182394391956E+01    3.5007512271102286E+00 \
              -1.2466224452477098E+01   -9.7284279738646298E-02   -1.3718921695189565E+00   -1.4695735587491496E+00    1.1368729948047708E+01 \
               1.3926325305839351E+00    1.6015399484315953E+01   -8.4638478080828694E+00   -5.4001423366589341E-01    1.8779620178429756E+01 \
              -3.0964294285717752E+01    6.6968660757841036E-01    8.2088823411015568E+00   -5.3774569310567246E+00    6.0678870155704017E+00 \
              -6.5070659798281881E+01    4.6489101527533286E+01    2.8406335190288847E+00    3.4350189725971703E+01   -3.0104615369032160E+01 \
              -1.6778665225147189E+00   -1.0874492607610332E+01    1.6101364585307362E+01   -7.0938587504241113E+00    7.7770887699072890E+00 \
               3.1416910149427961E+00   -2.5059980003547384E+00    3.4589838450974519E+00   -1.1432933980501909E+00    1.0101010527645974E+01 \
              -3.0097363505631190E+01   -1.1668999193384403E+01   -2.7387516078130965E+00    2.9619724888894545E+00   -2.0488841269702160E+01 \
              -7.5059839538477329E+00    1.6382419395564490E+01   -9.9275317872490429E+00   -5.2138445945161411E+00    4.4360852436360332E+01 \
              -2.1277651084125733E+01    3.7809781654072867E+00   -2.1701544057105270E+01    6.7203757515087768E+00    8.5176914401927206E+00 \
               3.0939888528886867E+00    1.8371370434595175E+01   -1.6022338668089642E+01   -3.1212025749252343E+00    1.2650056196183275E+01 \
              -2.4440120221764001E+00   -4.0993736715622930E+01    3.5297214268476580E+01   -5.6884803835972679E+00    3.1385264062516622E+01 \
              -3.3767289478197718E+01    6.9555069541283515E-02    1.5494711793623903E+01    9.3923163681685562E-01    1.1828454902713641E+01 \
              -1.6312156714915570E+01    1.1672237601470535E+01   -4.0109376406089037E-01    3.6410755923603261E+01   -3.1274130083644575E+01 \
               3.8557914687484556E+00    1.2075673472941075E+01   -1.5033627629699522E+01   -4.9200093042350668E+00   -2.1293549821553952E+01 \
               7.6337248525923351E-01    4.4121895622535862E-01   -1.0595890705011042E+01   -4.8674028006764143E+00    1.7908984983086329E+00 \
               4.7966547195622809E+01   -1.7834327486563147E+01    1.5142259749757139E+00   -2.1593376972099581E+00   -1.6408969500747904E+01 \
              -2.8776509454959434E+00   -8.2042775448783267E+00   -4.4051321751887844E+00   -7.6115880828817515E+00   -3.9918031919036551E+01 \
               5.9708076507142884E+00   -6.0587166454308994E-01    3.6000834865883803E+01   -8.0245579037297943E-01    2.4290049437474694E+00 \
               3.9138814387400551E+01   -8.1809910315952941E+00   -2.7438381586247361E-02   -2.4158103514678551E+01    5.0774979522595224E+01 \
               2.3052660322271041E+00    2.2532344354072571E+01   -2.5689012768216710E+01    1.8173324098261336E+00   -2.4355968074072013E+01 \
               1.7083763712753708E+01    5.1413524625532832E+00   -1.0831761509086578E+01    1.6116120386440318E+01    2.4355277883628482E-01 \
              -1.4040676852979052E+01    4.1060981117656468E+00
         &END COORD
         &VELOCITY
              -3.5396786986431024E-05    4.5108482837440507E-04   -5.2702378780868878E-04    1.6141089695977817E-04 \
               1.8456972455425743E-04   -3.4983115856528507E-05    1.3418987687527183E-04    9.6307347325272965E-05   -3.6682014574537856E-04 \
              -3.6675009217500501E-06    1.0263531505429560E-04    6.2186727869331497E-04   -7.2546422284867901E-05    8.4524386900896160E-05 \
              -2.4059930049285025E-04   -4.3932532233400992E-06    2.9703962694258847E-04   -1.3500585862329697E-04    1.8521027367225112E-04 \
              -2.9405640622340794E-04   -7.1329469685795906E-05   -1.3151979902657223E-04   -4.5923043024338629E-05    1.5354291765022829E-04 \
              -1.3599558266825636E-04   -5.4861702476522844E-04    1.6179661659465955E-04    4.5738577945286330E-05   -4.4473404504195423E-04 \
               1.4532952508224210E-05   -3.6426381784509707E-05    8.4395836944518146E-05    7.0035078448196577E-05    1.1786573322952473E-04 \
              -1.3123585115381939E-05    1.4156282318967438E-04    1.2488067265202946E-04    3.4741869501199094E-05    1.0753999357439640E-04 \
              -5.6377057220755639E-05   -1.7693133639123016E-04   -3.1857266064578210E-04   -5.4049321505299560E-05    3.1950486188708560E-04 \
              -2.1336342726468245E-05   -4.4857924116528717E-05   -4.0547947257496428E-04    7.8253051458515384E-05    3.0003217529562136E-05 \
               3.5400045921388636E-04    1.6882343541390893E-05    1.2738814196381286E-04   -1.5208072659864149E-04   -8.1850389374359467E-05 \
              -1.2288740419656895E-04    4.7241453336570560E-04   -5.3348342314080373E-06    6.1425176141386608E-05    3.0540855188379589E-04 \
               8.7126601253897018E-06    4.8778891767834943E-05    1.0831795141997584E-04    4.0080815951511485E-05   -8.2111353416021004E-05 \
               2.8059506504702004E-04    4.0134733641236783E-05   -2.8437182588363722E-05    2.7418823295529847E-04    2.8215201749109508E-04 \
              -4.4977734853768493E-05    6.0245005793641883E-04   -1.8889952506453891E-04   -8.4473890291236379E-05    9.8565073121941813E-05 \
              -1.3026972442003221E-05   -1.6189275678509643E-05   -9.2522972155268727E-05    8.5084387453629944E-05   -1.5928045488601948E-04 \
               2.2017858754115069E-05    1.4908760031415250E-04    5.7347029952166498E-05    1.9246115619733257E-04    9.8532117379332434E-05 \
               1.0817844864082561E-04   -1.2534802194289634E-05   -2.3252584301199216E-04    2.7919278124480753E-05    1.8620005851270412E-04 \
               1.0347226329639876E-04    1.5206349037779476E-04    4.2039705412801471E-04   -4.2516811457921262E-04    1.3365176799689339E-04 \