
@SET SYSTEM run-1H2O-VIBR
@SET LIBDIR ../cp2klib

&GLOBAL
  PROJECT ${SYSTEM}
  RUN_TYPE VIBRATIONAL_ANALYSIS
  PRINT_LEVEL LOW
&END GLOBAL

&FORCE_EVAL
  METHOD QuickStep

  &DFT
    BASIS_SET_FILE_NAME ${LIBDIR}/GTH_BASIS_SETS
    POTENTIAL_FILE_NAME ${LIBDIR}/GTH_POTENTIALS

    &MGRID
      CUTOFF 250
    &END MGRID
    &QS
      EPS_DEFAULT 1.0E-10
      EXTRAPOLATION ASPC
      EXTRAPOLATION_ORDER 4
    &END QS
    &SCF
      SCF_GUESS RESTART
      EPS_SCF 1.0E-6
      MAX_SCF 20
      &OT ON
        PRECONDITIONER FULL_SINGLE_INVERSE
        MINIMIZER DIIS
      &END OT
    &END SCF

    &XC
      &XC_FUNCTIONAL BLYP
      &END XC_FUNCTIONAL
      &XC_GRID
        XC_DERIV        SPLINE2_smooth
        XC_SMOOTH_RHO   NN10
      &END XC_GRID
    &END XC

  &END DFT

  &SUBSYS

    &CELL
      ABC [angstrom]  15 15 15
#      PERIODIC NONE
    &END CELL

#    &TOPOLOGY
#      &CENTER_COORDINATES T
#      &END CENTER_COORDINATES
#    &END TOPOLOGY

    &COORD
      O 0.0000000088 0.0557750052 0.0000001715
      H 0.7708525133 0.6566165520 0.0000000038
      H -0.7708525028 0.6566165441 0.0000000043
    &END COORD

    &KIND H
      BASIS_SET TZVP-GTH
      POTENTIAL GTH-BLYP-q1
    &END KIND
    &KIND O
      BASIS_SET TZVP-GTH
      POTENTIAL GTH-BLYP-q6
    &END KIND
  &END SUBSYS

&END FORCE_EVAL

&VIBRATIONAL_ANALYSIS
&END VIBRATIONAL_ANALYSIS
