#
# Classical MD of liquid water
#
&GLOBAL
  PROJECT run-H2O-256
  RUN_TYPE MD
  IOLEVEL LOW
  &PRINT
   PHYSCON
  &END PRINT
&END GLOBAL

&FORCE_EVAL
  METHOD FIST
  &MM
    &FORCEFIELD
      &BEND
        ATOMS H O H
        KIND HARMONIC
        K [rad^-2kcalmol] 110.0
        THETA0 [deg] 104.52
      &END BEND
      &BOND
        ATOMS O H
        KIND HARMONIC
        K [angstrom^-2kcalmol] 900.0 
        R0 [angstrom] 0.9572
      &END BOND
      &CHARGE
        ATOM O
        CHARGE -0.834
      &END CHARGE
      &CHARGE
        ATOM H
        CHARGE 0.417
      &END CHARGE
      &NONBONDED
        &LENNARD-JONES
          atoms O O
          EPSILON [kcalmol]  0.152073
          SIGMA   [angstrom] 3.1507
          RCUT    [angstrom] 11.4
        &END LENNARD-JONES
        &LENNARD-JONES
          atoms O H
          EPSILON [kcalmol] 0.0836
          SIGMA [angstrom] 1.775
          RCUT  [angstrom] 11.4
        &END LENNARD-JONES
        &LENNARD-JONES
          atoms H H
          EPSILON [kcalmol]  0.04598
          SIGMA   [angstrom] 0.400
          RCUT    [angstrom] 11.4
        &END LENNARD-JONES
      &END NONBONDED
    &END FORCEFIELD
    &POISSON
      &EWALD
        EWALD_TYPE spme
        ALPHA .3
        GMAX 20
        O_SPLINE 6
      &END EWALD
    &END POISSON
  &END MM
  &SUBSYS
    &CELL
      ABC 19.7340 19.7340 19.7340
    &END CELL
    &COORD
O    1.5488214943841474E+00    5.5204237283396536E+00    1.5417889175039571E+01 H2O
H    1.0653963162195599E+00    4.6549355024759809E+00    1.5488839073164526E+01 H2O
H    1.4062091539025410E+00    5.9326277543190784E+00    1.6280176664576995E+01 H2O
O    7.6804118606497367E+00    7.6796148050598259E+00    3.2178974968621961E+00 H2O
H    8.4937375304554070E+00    7.4071439014696105E+00    2.7596225390315983E+00 H2O
H    7.7444090722711225E+00    8.6280917093418488E+00    3.4397308161561413E+00 H2O
O    1.1775637206582216E+01    7.6912579996106958E+00    1.0318499125252567E+01 H2O
H    1.0881311935143943E+01    7.7489080097598606E+00    1.0722576706875069E+01 H2O
H    1.2342273922482546E+01    7.3466961306032079E+00    1.0992179429501084E+01 H2O
O    4.8174650870086833E+00    2.9955497984391575E+00   -1.3430338410564837E+00 H2O
H    4.1465890202866404E+00    2.4599087709881453E+00   -1.7881698093749592E+00 H2O
H    4.5046887995954421E+00    3.8768547881090414E+00   -1.6014223380641519E+00 H2O
O    1.3185427712012766E+01    4.7579039491061623E+00   -4.8488942233504275E+00 H2O
H    1.3645448459072178E+01    5.2910797565554670E+00   -4.1577041928330303E+00 H2O
H    1.2719586253588247E+01    4.0646638569406877E+00   -4.3555264561475830E+00 H2O
O    1.6915002061415482E+01    1.7532851381877418E+01    3.5399918884348631E+00 H2O
H    1.6392188319635437E+01    1.7108428371468314E+01    4.2551721235433284E+00 H2O
H    1.7424432027588740E+01    1.8296552752177782E+01    3.9611020077380061E+00 H2O
O   -3.9325952007758227E+00    6.0126635738365959E+00    1.1569626769815600E+00 H2O
H   -4.2454134749141250E+00    5.6317016212846003E+00    3.4049736044324225E-01 H2O
H   -3.0149987686766457E+00    5.6186529209414768E+00    1.2843452647657283E+00 H2O
O    1.2324546768973843E+01    7.2057311119568181E+00    1.7078574337130124E+01 H2O
H    1.2178064627606540E+01    8.1614987887696522E+00    1.7287238575287422E+01 H2O
H    1.1402427430838832E+01    7.0688213121046459E+00    1.6751723168267439E+01 H2O
O    1.8988480137403300E+01    5.2640609576997432E+00    9.0084295507052179E+00 H2O
H    1.8713699913759676E+01    4.5482002855858923E+00    8.4192580180033865E+00 H2O
H    1.8124728207960874E+01    5.5708886363593129E+00    9.3667967913855179E+00 H2O
O    8.3744190403230565E+00    2.1381370037915950E+00    1.8595541721503718E+01 H2O
H    9.1603623843746025E+00    1.6289975967095305E+00    1.8389816655057096E+01 H2O
H    8.7859788789776552E+00    2.9355536086440956E+00    1.9086594420039223E+01 H2O
O    4.4052336100157374E+00    1.8470474524216982E+01    1.9021105106164025E+01 H2O
H    4.7779120516127742E+00    1.8352494253175582E+01    1.9893510241733296E+01 H2O
H    5.1497742875600530E+00    1.9019294766798801E+01    1.8662082963164838E+01 H2O
O    4.2969390040312447E+00    1.8496070240513017E+01    1.2593493413488394E+01 H2O
H    5.0344200100094154E+00    1.8877049454780039E+01    1.3088917499946486E+01 H2O
H    3.6562007693798235E+00    1.8371619485565766E+01    1.3298981891236725E+01 H2O
O    5.0798181716458020E+00    2.0510220313269532E+01    5.5053173461339053E+00 H2O
H    5.5804566901663133E+00    2.1269286291293383E+01    5.1103109165065490E+00 H2O
H    5.8257420316598862E+00    2.0026804781446220E+01    5.9472934115017848E+00 H2O
O    1.4398131901146419E+01    4.8031950741335256E+00    1.8729733466095812E+01 H2O
H    1.3594787235734056E+01    5.1537289798009747E+00    1.9085897651056751E+01 H2O
H    1.4132595923377266E+01    3.8553452534076018E+00    1.8750688342215724E+01 H2O
O    8.1414773206617479E+00    1.5533319774984204E+01    1.3020242359888336E+01 H2O
H    8.5497465191919328E+00    1.6412723414355185E+01    1.3040611073585461E+01 H2O
H    7.3009268145351331E+00    1.5703865687943656E+01    1.2609567920821659E+01 H2O
O    5.9824637523205570E+00    1.6550119266129457E+01    1.1704342906089025E+01 H2O
H    5.3317888298366229E+00    1.5840691023079126E+01    1.1610986344266841E+01 H2O
H    5.3698202802107549E+00    1.7297325627375745E+01    1.1787453141449307E+01 H2O
O    1.5661076790508845E+00    9.9757123660160403E+00    1.4447764843177817E+01 H2O
H    1.7563337874770049E+00    9.3659711593309467E+00    1.3657301492760983E+01 H2O
H    8.6322592603499726E-01    9.5602162658733842E+00    1.4942491639294387E+01 H2O
O    1.2974485737620478E+01    9.6120401709876990E+00    8.6996042485732001E+00 H2O
H    1.2647391350256052E+01    8.8919586858141688E+00    9.2364495278236731E+00 H2O
H    1.3819835457870120E+01    9.8008931788382814E+00    9.1952259652027823E+00 H2O
O    1.9706033010842894E+01    8.2216387624208007E+00   -3.8216470903228372E+00 H2O
H    1.9129646355069109E+01    7.5616890131715220E+00   -4.2074175834849923E+00 H2O
H    1.9163257281717542E+01    8.8182892336565430E+00   -3.3474870336736089E+00 H2O
O    1.7561332321944949E+01   -3.6277586797583422E-01    1.5368403974404767E+01 H2O
H    1.8032708589125559E+01    9.3262473891904493E-02    1.4660855605642306E+01 H2O
H    1.8220201172948475E+01   -3.7484571585647802E-01    1.6045282576004411E+01 H2O
O    1.4114650853676876E+01   -3.5401607630249257E+00    1.4123379533571804E+01 H2O
H    1.4934665441667745E+01   -3.0860886313383444E+00    1.4441285614832546E+01 H2O
H    1.4441948802152819E+01   -4.3043440891076994E+00    1.3580250516064735E+01 H2O
O   -3.6890878884790945E+00    4.6627836817716242E+00    1.4096718997747532E+01 H2O
H   -4.6485423346908927E+00    4.6280654131926937E+00    1.4249637784495199E+01 H2O
H   -3.5093317357083396E+00    4.0235551598484713E+00    1.4856327604971248E+01 H2O
O    8.1363895769771020E+00    2.5341188117736007E+00    9.0020977236801070E+00 H2O
H    8.9165852844042615E+00    2.8134376003003876E+00    9.5058619505713668E+00 H2O
H    8.5580913361071076E+00    2.1614767466248868E+00    8.2342857705434938E+00 H2O
O    2.0456825340651021E+00    2.0824734416333698E+01    1.9140152783704005E+00 H2O
H    2.0691060174667557E+00    2.0342983624699585E+01    1.0508980907552883E+00 H2O
H    2.9304080736792391E+00    2.1249608146908432E+01    1.9211626284993124E+00 H2O
O    9.2974156433625676E+00    8.1732063316057530E+00    1.1498994603814234E+01 H2O
H    9.3215842045396329E+00    9.0889771292745944E+00    1.1838839821460942E+01 H2O
H    9.1404208594417327E+00    7.6196392693534110E+00    1.2298874956429852E+01 H2O
O    9.7054326940866495E+00    1.9385681324545323E+00    1.3280795952559199E+01 H2O
H    9.4901434461178429E+00    1.0233816174213355E+00    1.3118058720691286E+01 H2O
H    9.4183272546388217E+00    2.4286067264130002E+00    1.2460509553723522E+01 H2O
O    1.4856425906175151E+01    1.9125369659141072E+01    1.3575453371894294E+01 H2O
H    1.5075427345513340E+01    1.8485150684369724E+01    1.2932257870182848E+01 H2O
H    1.3935579704499657E+01    1.9151759450288889E+01    1.3617715244668858E+01 H2O
O    1.1799481336355351E+01    9.5964558425071935E+00    4.2897283528016166E+00 H2O
H    1.2716732055006833E+01    9.7867254166754254E+00    4.1071517787904499E+00 H2O
H    1.1905114443364742E+01    8.9894580477353756E+00    4.9668831157934896E+00 H2O
O    5.7325014406935528E+00    1.2211138402781176E+01    9.8703681968719419E+00 H2O
H    5.7580737750649398E+00    1.2737711102359270E+01    9.0479942160208413E+00 H2O
H    4.7959043278962969E+00    1.1962474924370747E+01    9.9195920339770485E+00 H2O
O    6.4567617232590879E-01    6.1448491989047067E+00    3.0844220553080291E+01 H2O
H    5.0071485444999031E-01    5.6094496700379990E+00    3.0048098072449044E+01 H2O
H   -2.5440759962271714E-01    5.9929612802863348E+00    3.1276505643612516E+01 H2O
O    8.3553117184873198E+00    5.6153675949048933E+00    1.2533300499476407E+01 H2O
H    8.4997331682230168E+00    6.2717766304869729E+00    1.3345276278361476E+01 H2O
H    9.2833923593661254E+00    5.3313262578275822E+00    1.2283780622927805E+01 H2O
O    6.6343019746967995E+00    2.4755617028955972E+00    1.5459404319960287E+01 H2O
H    6.7619561756915854E+00    1.9213380827428483E+00    1.6272230939304944E+01 H2O
H    5.9298980141466346E+00    3.0742449155046443E+00    1.5782417881313661E+01 H2O
O    3.1352987638478163E+00    8.5651592495929592E+00    5.8681482786301142E+00 H2O
H    2.3184425330594189E+00    8.4285243987434839E+00    6.4634716024840166E+00 H2O
H    3.5907871729834553E+00    9.1503043155071246E+00    6.4691119706880862E+00 H2O
O    1.4804825799379499E+01    6.6464793229784087E+00   -3.4881743529537275E+00 H2O
H    1.4027368799661964E+01    7.1772875378369596E+00   -3.2550550114936367E+00 H2O
H    1.5028209854214211E+01    6.4211544595915564E+00   -2.5553127194734429E+00 H2O
O    1.7075552538732737E+01    6.5888618269295374E-01    3.5372699866390356E+00 H2O
H    1.6543578458950698E+01    6.5317437254866040E-01    4.3394255512481958E+00 H2O
H    1.6445604505144601E+01    9.6254761771328756E-01    2.8736628361417162E+00 H2O
O    6.0359182323514187E+00    2.3045485691719481E+01    4.3110853689743616E+00 H2O
H    5.6051721789229347E+00    2.3845264256234316E+01    3.9874459269705138E+00 H2O
H    6.8520323485893551E+00    2.3401919389572935E+01    4.5977246148523419E+00 H2O
O    5.5526917076900384E+00    1.0425139445553411E+01    1.7333352433445430E+01 H2O
H    4.6486288564773508E+00    1.0575782316932161E+01    1.6930267795478279E+01 H2O
H    6.1998661594135553E+00    1.0868098640782355E+01    1.6774335104688483E+01 H2O
O    9.6444201001718763E+00    6.6736279249103676E+00    1.7081595873077344E+01 H2O
H    9.3452587958916009E+00    5.7488289670452497E+00    1.6858834512068540E+01 H2O
H    8.8280299889487868E+00    6.9446663671598996E+00    1.7564963025204460E+01 H2O
O    8.0346818860316827E+00    1.5011188988226342E+01    5.7957345995221810E-01 H2O
H    8.0378405447230463E+00    1.4252892486089729E+01   -4.8490586381739455E-02 H2O
H    7.1889863589525147E+00    1.5443743478032353E+01    3.2885994284467884E-01 H2O
O    5.9650897590293974E+00    4.3538999272038490E+00    1.2537383407381496E+01 H2O
H    5.3047773983047133E+00    4.9862146990155374E+00    1.2990960536599145E+01 H2O
H    6.8861973903237805E+00    4.7380526809247749E+00    1.2510147990962684E+01 H2O
O    4.6175302709170669E+00    7.9514238973394900E+00    1.4086383219224384E+01 H2O
H    5.2209973179828006E+00    7.7019135988578498E+00    1.3332164544688331E+01 H2O
H    3.9736547482208873E+00    7.3617243699715589E+00    1.3793509871489688E+01 H2O
O    2.3837456713218432E+00    1.8847391185726245E+00    1.7353490756470869E+01 H2O
H    2.0754284528204296E+00    1.0831449949751306E+00    1.7797074384690866E+01 H2O
H    1.6091321122749813E+00    2.3838635505913754E+00    1.7171080130367653E+01 H2O
O    1.6601373900766216E+01    3.5263159955392731E+00    1.6490357442246331E+01 H2O
H    1.7073655475428364E+01    4.1717576008289372E+00    1.7006729106829777E+01 H2O
H    1.6388057383490967E+01    2.9238255767833796E+00    1.7202600845975937E+01 H2O
O    1.1253317651978461E+01   -1.8583715425122893E+00    4.9975323750918559E+00 H2O
H    1.0535805799651559E+01   -2.3931278076739155E+00    5.5133869104241198E+00 H2O
H    1.1595318073136783E+01   -1.1977793276755477E+00    5.6244852194906461E+00 H2O
O    5.6020911413795886E+00    5.9716532687099493E+00    2.0275391427325033E+01 H2O
H    5.1886666039020257E+00    6.0861194996515424E+00    2.1156806694895369E+01 H2O
H    6.4639934191016906E+00    5.5608228521745113E+00    2.0579150206765178E+01 H2O
O    1.3833148047496879E+01    3.2810588158022878E+00    2.4981024493924684E+00 H2O
H    1.3103106097829944E+01    2.8368005735783255E+00    2.8767580763395513E+00 H2O
H    1.4026498848412368E+01    4.0588884435233119E+00    3.0393444681549076E+00 H2O
O    5.6165770037817522E+00    5.8382745747297626E+00    3.1205316455357628E+00 H2O
H    6.3046268693134913E+00    6.5472026223278803E+00    3.1051177468200191E+00 H2O
H    5.2691359506021431E+00    5.9317030906712045E+00    4.0148104031163605E+00 H2O
O    1.8846688744824100E+01    1.3001072681192463E+00    1.8627917006503139E+01 H2O
H    1.8821045434575787E+01    9.9689661483393910E-01    1.9526557573516449E+01 H2O
H    1.9308669323614129E+01    5.2119120448768841E-01    1.8272592145190352E+01 H2O
O    1.0195232908957543E+01   -2.0176785603385095E-01    1.1073553213571079E+01 H2O
H    9.2297664209646086E+00   -2.1873130676593031E-01    1.1197450432191671E+01 H2O
H    1.0463392388374393E+01   -1.1078552578168241E+00    1.1213296226697681E+01 H2O
O    7.4263885713485385E+00    3.0295991497383373E-01    1.0907298286605748E+01 H2O
H    7.4374121068577175E+00    9.9475231003968256E-01    1.0195671813397986E+01 H2O
H    7.0303505907222483E+00    6.9116775245355577E-01    1.1735922625920344E+01 H2O
O    2.7200178894320196E+01    1.9409417355894426E+01    6.4219452478653922E+00 H2O
H    2.7247812038422456E+01    1.9989598008658142E+01    5.6481203904110684E+00 H2O
H    2.7995404579600869E+01    1.9788091416937796E+01    6.9056497357913180E+00 H2O
O    1.8483388774549677E+01    1.7114431643820812E+01   -1.0677161158043846E+00 H2O
H    1.8135938775344467E+01    1.7229373607501088E+01   -1.2729092063205497E-01 H2O
H    1.8098568038126722E+01    1.6257090577930136E+01   -1.2831551322348653E+00 H2O
O    3.8654953579402513E+00    5.6487608505620965E+00   -1.8554041861683979E+00 H2O
H    4.3338725535904343E+00    6.3643568848882230E+00   -2.4138517986787735E+00 H2O
H    4.2430690173869250E+00    5.8018430472054110E+00   -9.7748445015826313E-01 H2O
O    1.0517807673200362E+01    1.2729684080205912E+01    5.4019955905180401E+00 H2O
H    1.0612392430857875E+01    1.2140798428327384E+01    6.1713392251044930E+00 H2O
H    1.1319321990954707E+01    1.2575437685096613E+01    4.8596085255764274E+00 H2O
O    1.8807358291358906E+01    9.3745319056975855E+00    5.5832931819073810E+00 H2O
H    1.7879427214802448E+01    9.6553708319155032E+00    5.8199533615462364E+00 H2O
H    1.9326845346707714E+01    1.0184645110482704E+01    5.6904489714268331E+00 H2O
O    6.4857827783259503E-01    1.3382690855704070E+01    1.0621975347139864E+01 H2O
H   -3.2745566695145195E-01    1.3403070480850092E+01    1.0623708581574119E+01 H2O
H    7.0162997313731201E-01    1.4205531389640857E+01    1.0961080747254682E+01 H2O
O    8.1150488294237704E+00    9.9813441211173011E+00    1.1656427984137248E+00 H2O
H    7.8473847787812243E+00    9.3763215152990806E+00    1.8404483640172815E+00 H2O
H    8.8295892350785046E+00    1.0421798659435721E+01    1.5656565218134297E+00 H2O
O   -1.7135110712993464E+00    1.7856782525971585E+01    7.7540417201521974E+00 H2O
H   -1.0421745596480347E+00    1.8241137432503010E+01    8.3289396717126376E+00 H2O
H   -1.2885117087917402E+00    1.8062739641913733E+01    6.9178786137263852E+00 H2O
O    5.8174711437783087E+00    6.5162305176958935E+00    8.0955938158290834E+00 H2O
H    5.0305529147810422E+00    6.7299950828827555E+00    8.6760694689157880E+00 H2O
H    6.4919710783725204E+00    6.6165738141599144E+00    8.7973310883610303E+00 H2O
O    1.0988422444122246E+01    1.1070344094253366E+01    7.5409465783428340E+00 H2O
H    1.1786192484394471E+01    1.0531265194500028E+01    7.7525206945225378E+00 H2O
H    1.0603839613753836E+01    1.1305215352897763E+01    8.4814818782907828E+00 H2O
O    4.9783117006532303E+00    7.8483647979970481E+00    1.6982341653407712E+01 H2O
H    5.1528029093566019E+00    8.7977952991146502E+00    1.7170067432179746E+01 H2O
H    4.6644672784591883E+00    7.9531372542366032E+00    1.6019729821671898E+01 H2O
O    9.9563782539228232E+00    1.0455157061284309E+01    1.2723515452423909E+01 H2O
H    9.1252452908876638E+00    1.0864202372467917E+01    1.2530199619706124E+01 H2O
H    9.9794427152036285E+00    1.0652297435723886E+01    1.3637344140135745E+01 H2O
O    4.4037601597759295E+00    2.5333996254005648E+00    2.1560238444103121E+00 H2O
H    4.8135879622492821E+00    2.5745630413912868E+00    1.3507421637680839E+00 H2O
H    5.1411413303848601E+00    2.4082208938072216E+00    2.7086121019678693E+00 H2O
O    1.3570197214560796E+01    1.3055639782335671E+01    1.5797439039668326E+01 H2O
H    1.3662224888419690E+01    1.2972259844855534E+01    1.6769350335716439E+01 H2O
H    1.3757808632409112E+01    1.3999434086006586E+01    1.5733356642957904E+01 H2O
O    3.6804158870964203E+00    1.8978034494783195E+01    3.7041783528744459E+00 H2O
H    3.6949061392719971E+00    1.9724274543007677E+01    4.3382289594389869E+00 H2O
H    4.4233884330826712E+00    1.9132757153268741E+01    3.0590018723537522E+00 H2O
O    6.5756175656967901E+00    1.0201221215338704E+01    1.2251385922212879E+01 H2O
H    6.8432740512400301E+00    1.1019145668077247E+01    1.1948554073954115E+01 H2O
H    5.8677119071097925E+00    1.0460810462783535E+01    1.2855019568118117E+01 H2O
O    2.2105140862504889E+01    2.8401237283381211E+00    1.3092078228856897E+01 H2O
H    2.2090599102023479E+01    2.7358914665837180E+00    1.2145026907648170E+01 H2O
H    2.1162609746764716E+01    2.8859608007699151E+00    1.3344391165946625E+01 H2O
O    1.9625678728649607E+01    2.2999436048537209E+01   -3.0715952009577143E+00 H2O
H    1.9252461980079733E+01    2.3783522403626602E+01   -2.5871113778495629E+00 H2O
H    1.9290982692343949E+01    2.2322538216875870E+01   -2.4686853861388052E+00 H2O
O    1.8184285403689096E+01    1.2210205516565836E+01    6.7409659340921992E+00 H2O
H    1.9020367326562202E+01    1.1988779594887438E+01    7.1177899513273264E+00 H2O
H    1.8212484054415906E+01    1.3136390702811831E+01    6.9300080958167358E+00 H2O
O    1.2481953654362021E+01   -1.7056219509979103E+00    9.5500558094033057E+00 H2O
H    1.2350313396832529E+01   -1.7030494002635397E+00    1.0528863119683784E+01 H2O
H    1.2219962615394962E+01   -2.5906148858018532E+00    9.3913650742102295E+00 H2O
O    2.0445532964425368E+01    7.0249094487550510E+00    2.0825743170620019E+01 H2O
H    1.9679516936306040E+01    6.7751920796195995E+00    2.1374987654088780E+01 H2O
H    2.1035834645019438E+01    7.2619820851973600E+00    2.1522003161886442E+01 H2O
O    3.7754103154573486E+00    1.3558456859176966E+01    7.7066448937099548E+00 H2O
H    3.8475536272066786E+00    1.4526509025633846E+01    7.5524917357403112E+00 H2O
H    3.7555798723719014E+00    1.3250949031674551E+01    6.7787105046858454E+00 H2O
O    1.4625743304111932E+01    1.6486364655759363E+01    1.8963763658855260E+01 H2O
H    1.5233284581090508E+01    1.7040050696386487E+01    1.9496161929318085E+01 H2O
H    1.3790037775433280E+01    1.6517368372585427E+01    1.9492511497447904E+01 H2O
O    4.0029706605172617E+00    1.6232225792465435E+01    6.6376743385000951E+00 H2O
H    3.9294121169221503E+00    1.6055138784201191E+01    5.6788283019762904E+00 H2O
H    4.9132416616675867E+00    1.6538321161245658E+01    6.7577363260673788E+00 H2O
O    1.6625167378627118E+01    1.5539571181694104E+01    1.7321120967042152E+01 H2O
H    1.6353040240256551E+01    1.5824798702633988E+01    1.6386192574850391E+01 H2O
H    1.5834820572846830E+01    1.5892327278614589E+01    1.7836614426188589E+01 H2O
O    1.4490390947653125E+01    1.2166517896050615E+00    7.4320632855677253E+00 H2O
H    1.3818488667427115E+01    1.8608709701024782E+00    7.7476897227918116E+00 H2O
H    1.5163259671671169E+01    1.2734263372396002E+00    8.1232503551537221E+00 H2O
O    1.8203818702107572E+01    2.2440122047755374E+01    7.2369335660787515E+00 H2O
H    1.8241997764956739E+01    2.2997642928789688E+01    6.3864062940204738E+00 H2O
H    1.8938544954920978E+01    2.1812428245121591E+01    7.0060823551607907E+00 H2O
O    2.3209253624009115E+01    1.6356075563118516E+01    3.9755465244126671E+00 H2O
H    2.3378193332265237E+01    1.7299761679463327E+01    3.6920005664475060E+00 H2O
H    2.3882224942090417E+01    1.5881755045316170E+01    3.4317548385114693E+00 H2O
O    2.4297312863288778E+00    1.7682703925638041E+01    1.7048053826409859E+01 H2O
H    1.8629829028558618E+00    1.7309333487700158E+01    1.7732058199800431E+01 H2O
H    3.3330637037214537E+00    1.7651388739640083E+01    1.7395196803648314E+01 H2O
O    8.2937199416369030E+00    1.0345918999252131E+01    4.0618087816272226E+00 H2O
H    8.1525191847728458E+00    9.9819206382628742E+00    4.9915366389189852E+00 H2O
H    8.3586976853367698E+00    1.1287919388321178E+01    4.2234909009494741E+00 H2O
O    3.9260060490489899E+00    1.5068261588654600E+01    1.0345980181924544E+01 H2O
H    3.8221432190111759E+00    1.5904601325689930E+01    9.8846030876313549E+00 H2O
H    3.7943887654853055E+00    1.4478451279839234E+01    9.6306905538238183E+00 H2O
O    1.0848582956665675E+01    3.1627039222752580E+00    2.5818469042408612E+01 H2O
H    1.1681880560578694E+01    3.5912268898987021E+00    2.5521279745129046E+01 H2O
H    1.0465509521242963E+01    3.7416933080341925E+00    2.6471886082712565E+01 H2O
O    6.9788044408798191E+00    9.4286317968690661E+00    9.6515276075145007E+00 H2O
H    6.9114545786109627E+00    8.7580890299427079E+00    1.0370898367448621E+01 H2O
H    6.6471271700673098E+00    1.0249409206618964E+01    1.0099866471167148E+01 H2O
O    2.2192259211650097E+01    7.8186581356196658E+00    2.2994960937276382E+01 H2O
H    2.2360926769243580E+01    6.8782480851545627E+00    2.2902339301781208E+01 H2O
H    2.2404917583592386E+01    8.0078391997698315E+00    2.3939540835994297E+01 H2O
O    1.6840932312181927E+01    2.0769725030040899E+01    8.8878473567913030E+00 H2O
H    1.7244579641965931E+01    2.1492543300903034E+01    8.3941951107890080E+00 H2O
H    1.7448677195717885E+01    2.0018007250079940E+01    8.6451624977153809E+00 H2O
O    1.8717126918697232E+01    4.6082709632089891E+00    5.2016869064758184E+00 H2O
H    1.9075150628497564E+01    4.0000053578173169E+00    4.4609946968922927E+00 H2O
H    1.9011170635810959E+01    5.4847357251713156E+00    4.8985716562719110E+00 H2O
O    2.0145615065329157E+01    1.9282195368205851E+01    8.6994745532099991E+00 H2O
H    2.0623430411221381E+01    1.9800537950485090E+01    8.0568637031793777E+00 H2O
H    2.0642660698215586E+01    1.9370387039648502E+01    9.5132259096490994E+00 H2O
O   -3.5394186760551625E+00    1.3466447286865124E+01    2.6758724548969330E+00 H2O
H   -4.1224492134808566E+00    1.4229691711157137E+01    2.7591343803626351E+00 H2O
H   -2.6847713748017830E+00    1.3916663649870561E+01    2.8247011077200614E+00 H2O
O    2.1847900954867153E+01    1.8069106523271447E+01    1.4562384443984289E+01 H2O
H    2.2168232899057045E+01    1.8952576422473239E+01    1.4764501167618839E+01 H2O
H    2.1715000072680024E+01    1.7897196784511724E+01    1.5501639161898710E+01 H2O
O    2.2925222939291722E+01    2.0731448348719503E+01    1.4827830623124948E+01 H2O
H    2.2561165558100633E+01    2.1112589462719772E+01    1.5628553506956198E+01 H2O
H    2.2861093199793999E+01    2.1466417727918074E+01    1.4173029942500811E+01 H2O
O    1.2203646496893626E+01    1.3462681287959493E+00    2.4141217409612114E+01 H2O
H    1.1499754801455154E+01    1.5825665615217583E+00    2.4768996088176102E+01 H2O
H    1.1725621969915789E+01    1.4191442226811284E+00    2.3288995618064931E+01 H2O
O    1.3951573733699123E+01    6.7452361773299385E+00    3.5488301944836169E+00 H2O
H    1.4686307881468775E+01    6.6647969667044968E+00    2.8695070058366356E+00 H2O
H    1.4041475419927975E+01    7.7146419596392652E+00    3.7980881656592946E+00 H2O
O    1.3273907211715368E+01    1.2221902850295971E+01    3.6184552164938424E+00 H2O
H    1.3900596856982556E+01    1.1589898494068890E+01    3.1361675521187218E+00 H2O
H    1.3271270661616184E+01    1.3037139203980985E+01    3.0671221364758043E+00 H2O
O    7.8554331353620430E+00   -6.7255580660329084E+00    5.9563505538858976E+00 H2O
H    8.8847162758564586E+00   -6.7326708977134953E+00    5.8244363910959942E+00 H2O
H    7.6565740980333814E+00   -5.8715494966003074E+00    5.4974993551353872E+00 H2O
O    5.6105858279921774E+00    1.5894242656078108E+01    2.5847766634260112E+00 H2O
H    5.8300336268417592E+00    1.6821922256535640E+01    2.2762340387425879E+00 H2O
H    5.7212194740667872E+00    1.5304859839783353E+01    1.8580410591635468E+00 H2O
O   -1.1300696954900584E+00    1.4950766503000908E+01    3.0969613757657761E+00 H2O
H   -1.5064631336855259E+00    1.5796339773522815E+01    3.4185547091567274E+00 H2O
H   -2.5389174507056733E-01    1.4815084428938759E+01    3.6230149042914532E+00 H2O
O    1.2071000046220218E+01    1.3508628815113479E+01    1.0909195836526468E+01 H2O
H    1.2590769837875222E+01    1.3878515725730898E+01    1.0153250100518289E+01 H2O
H    1.1399272990584727E+01    1.3101861120629325E+01    1.0418472023183456E+01 H2O
O    8.0574798946206077E+00    2.4450503349389962E+01    2.1467547599131493E+01 H2O
H    8.8912811987332852E+00    2.4425456237160059E+01    2.1009272595660860E+01 H2O
H    8.3139608407150938E+00    2.4475039328720584E+01    2.2379399957042853E+01 H2O
O    1.1151270951227836E+01    4.9267948569921352E+00    1.2518617804657620E+01 H2O
H    1.1460848700608079E+01    4.0723721178862782E+00    1.2139519115831403E+01 H2O
H    1.1418003342578659E+01    4.8717756375221857E+00    1.3427901432566943E+01 H2O
O    1.5564616109447176E+00    7.4524270125261474E+00    1.3275952565596585E+01 H2O
H    1.1036598857546820E+00    6.8294711518406732E+00    1.3843955039334912E+01 H2O
H    1.1771131214148334E+00    7.3256528284190781E+00    1.2417363285530815E+01 H2O
O    1.8332160702941835E+01    9.5290393283034689E+00    2.7175501867283418E+00 H2O
H    1.7975595903658050E+01    1.0202223643517657E+01    3.4154302046701521E+00 H2O
H    1.8789815229954058E+01    1.0208597244541242E+01    2.2082420482622664E+00 H2O
O    4.7720651929289222E+00    6.1635581876817138E+00    5.6091801758205824E+00 H2O
H    4.1777653711423755E+00    6.9276117529651522E+00    5.7320018047499319E+00 H2O
H    5.2286703921481683E+00    6.1769459972524929E+00    6.4959920155053785E+00 H2O
O    8.6217577012026858E-01    1.6252345633231659E+01    7.3174629772342241E+00 H2O
H    1.1667239211115414E+00    1.7145986521092894E+01    7.5608875768441122E+00 H2O
H    1.7198699468873047E+00    1.6035995054825563E+01    6.9745375719438609E+00 H2O
O    1.5368827220163508E+01    1.6547775971991900E+01    8.2206766215149152E+00 H2O
H    1.6166741413092474E+01    1.7122131804726259E+01    8.2995834433017848E+00 H2O
H    1.4730776810808154E+01    1.7125308410009307E+01    7.7492297058931188E+00 H2O
O    1.0898158345936082E+01    1.2639594394795870E+01    2.7995111994704885E-01 H2O
H    1.1852904675440291E+01    1.2373751277106745E+01    3.6747725774824533E-02 H2O
H    1.0741640171479727E+01    1.2036863163983067E+01    1.0514757588025463E+00 H2O
O   -3.4335854066754372E+00    1.8114659253113906E+01    2.0808388256586039E+01 H2O
H   -2.6284377723852823E+00    1.8636997109631704E+01    2.0768685475597596E+01 H2O
H   -3.3760773092426062E+00    1.7599424067715216E+01    2.1586267179637403E+01 H2O
O    1.0890024852648846E+01    1.7922256070886256E+01    2.0122422912339964E+01 H2O
H    1.1681494351500280E+01    1.7406229790669723E+01    2.0088212655202177E+01 H2O
H    1.0238648116997945E+01    1.7556442227857310E+01    2.0751610517564284E+01 H2O
O    7.2328681984288217E+00    7.2511529084788480E+00   -1.4136854512573351E+00 H2O
H    6.6931543376049740E+00    6.9199572907193767E+00   -6.3813585242763926E-01 H2O
H    6.4685628223704841E+00    7.2961552670520122E+00   -2.0285455707704672E+00 H2O
O    2.0110751329601413E+01    1.4444376180604090E+01    7.1070959695831715E-01 H2O
H    1.9624357062648588E+01    1.4498827985591651E+01    1.5920070089297842E+00 H2O
H    2.0881821849625737E+01    1.4022286868724741E+01    1.1150100259151059E+00 H2O
O    7.9370702834100433E+00    1.5158533687125923E+01    4.2299192190659554E+00 H2O
H    8.4601766293011380E+00    1.4572250631240683E+01    3.5600545661944265E+00 H2O
H    7.1234113041618965E+00    1.5255035668407562E+01    3.7001073492297669E+00 H2O
O    1.2319394765904550E+01    1.6279752399294292E+01    1.1992550110244656E+01 H2O
H    1.2195391318297018E+01    1.5360472250523463E+01    1.1654200996855005E+01 H2O
H    1.2910085064922677E+01    1.6128708511578875E+01    1.2754876684922202E+01 H2O
O    7.6213381192564906E+00    1.4793091572718506E+01    1.5605967594629883E+01 H2O
H    8.1539265545909050E+00    1.4932893431504928E+01    1.4839448885736260E+01 H2O
H    8.3025796004239165E+00    1.4435468392530003E+01    1.6200016750645318E+01 H2O
O    6.8393246050754311E+00    1.9445649342978417E+01    1.8855765399460466E+01 H2O
H    7.6639828762047593E+00    1.8956257342330648E+01    1.8575457548843328E+01 H2O
H    7.3021853046215330E+00    2.0324623749448300E+01    1.8900321209037156E+01 H2O
O    1.7683527449054704E+01    1.4097557289562097E+01    1.0334057852583586E+01 H2O