#
# Classical MD of liquid water
#
&GLOBAL
  PROJECT run-H2O-128
  RUN_TYPE MD
  IOLEVEL LOW
  &PRINT
   PHYSCON
  &END PRINT
&END GLOBAL

&FORCE_EVAL
  METHOD FIST
  &MM
    &FORCEFIELD
      &BEND
        ATOMS H O H
        KIND HARMONIC
        K [rad^-2kcalmol] 110.0
        THETA0 [deg] 104.52
      &END BEND
      &BOND
        ATOMS O H
        KIND HARMONIC
        K [angstrom^-2kcalmol] 900.0 
        R0 [angstrom] 0.9572
      &END BOND
      &CHARGE
        ATOM O
        CHARGE -0.834
      &END CHARGE
      &CHARGE
        ATOM H
        CHARGE 0.417
      &END CHARGE
      &NONBONDED
        &LENNARD-JONES
          atoms O O
          EPSILON [kcalmol]  0.152073
          SIGMA   [angstrom] 3.1507
          RCUT    [angstrom] 11.4
        &END LENNARD-JONES
        &LENNARD-JONES
          atoms O H
          EPSILON [kcalmol] 0.0836
          SIGMA [angstrom] 1.775
          RCUT  [angstrom] 11.4
        &END LENNARD-JONES
        &LENNARD-JONES
          atoms H H
          EPSILON [kcalmol]  0.04598
          SIGMA   [angstrom] 0.400
          RCUT    [angstrom] 11.4
        &END LENNARD-JONES
      &END NONBONDED
    &END FORCEFIELD
    &POISSON
      &EWALD
        EWALD_TYPE spme
        ALPHA .3
        GMAX 16
        O_SPLINE 6
      &END EWALD
    &END POISSON
  &END MM
  &SUBSYS
    &CELL
      ABC 15.6404 15.6404 15.6404
    &END CELL
    &COORD
O    4.7683608285844272E+00    1.3503024432746903E+01    1.1172386396641949E+01 H2O
H    4.1300664332133863E+00    1.2864367178191587E+01    1.0818578921444328E+01 H2O
H    4.4676090313718628E+00    1.3514181718867961E+01    1.2077948505597726E+01 H2O
O    1.2068197986759650E+01    1.4798451964368603E+01    1.3163316130757767E+01 H2O
H    1.2963275737245940E+01    1.4597917246977607E+01    1.3482027047381257E+01 H2O
H    1.1554221969076918E+01    1.4383841570324321E+01    1.3879868454066809E+01 H2O
O    1.1127569368169372E+01    1.2779306534911136E+01    1.5121188223136325E+01 H2O
H    1.1367122090137777E+01    1.1861256325695772E+01    1.4846710543875098E+01 H2O
H    1.1932851598939804E+01    1.3092746306530291E+01    1.5553570894249201E+01 H2O
O    1.0640564601167590E+01    1.6437503901536630E+01    9.9546516261077524E+00 H2O
H    9.7376968696593114E+00    1.6701399734237388E+01    1.0360822319710621E+01 H2O
H    1.0888413593372450E+01    1.7243564344720848E+01    9.4131735017546401E+00 H2O
O    1.8072918956161093E+00    7.4532479026613174E+00    5.2819254234988673E+00 H2O
H    1.8281728418585461E+00    8.2196700441246051E+00    5.8763055512134779E+00 H2O
H    2.4037241753144545E+00    6.7794760214932079E+00    5.6830880926669129E+00 H2O
O    3.8609726277693973E-01    1.1388767112589687E+01    1.0090885532277419E+01 H2O
H   -2.5436318890261794E-01    1.0762441831003724E+01    1.0532158315474749E+01 H2O
H    4.6140729408453562E-01    1.2083513945579314E+01    1.0747244620885578E+01 H2O
O    1.3555285718183848E+01    1.9277056345174113E+01    5.9026557078398456E+00 H2O
H    1.3357737843174556E+01    1.9096124558632788E+01    5.0122597431912004E+00 H2O
H    1.3273131387030654E+01    2.0176127078256400E+01    5.9835954754852487E+00 H2O
O    7.0020993862274672E+00    1.2225248957289100E+01   -2.7989964067836772E+00 H2O
H    7.2685882737861345E+00    1.3087745342730521E+01   -2.4118897836544417E+00 H2O
H    6.1746779928440345E+00    1.2521182563683878E+01   -3.2281173465891437E+00 H2O
O    1.6596307836808400E+01    9.0503279012290883E-01   -1.4853017678651848E-01 H2O
H    1.6507513061887916E+01    1.7577285457299650E+00   -6.6984850841312371E-01 H2O
H    1.6122651479760489E+01    1.2848886953143381E+00    6.8174844807298962E-01 H2O
O    3.1915371191301607E+00    1.1868380449700098E+01    9.6161054026481381E+00 H2O
H    3.0361145908473848E+00    1.2024606129383201E+01    8.7122369877307602E+00 H2O
H    2.3620794364358813E+00    1.1394998812865524E+01    9.8393426073425179E+00 H2O
O    1.0217280195614087E+01    1.6863582945414844E+01    1.6340322337712820E+01 H2O
H    1.0909675822758723E+01    1.6096856083979297E+01    1.6350365090778716E+01 H2O
H    1.0023985633027237E+01    1.7001286067925474E+01    1.5340319702561285E+01 H2O
O    8.8720248331494052E+00    1.0683884064001193E+01    1.1749894690815648E+01 H2O
H    8.2315422531783948E+00    1.0763274203970747E+01    1.1033712525372362E+01 H2O
H    8.4671954697855298E+00    1.1197195030896548E+01    1.2461404904424439E+01 H2O
O    1.1206456281402998E+01   -8.6311555744965884E-01    7.0265750995789196E+00 H2O
H    1.0233552500946328E+01   -9.7813913855910417E-01    7.3476924314849192E+00 H2O
H    1.1292693047141471E+01    1.2961632596304301E-01    7.0374261917671772E+00 H2O
O    1.3454503849900766E+01    8.0620908733771959E+00    9.3112634468736797E+00 H2O
H    1.3993894861694169E+01    7.2920512053206386E+00    9.2760479027514222E+00 H2O
H    1.3486835700083359E+01    8.3591698629042170E+00    8.3942513425575545E+00 H2O
O    7.0020833751787031E+00    7.3320181699336295E+00    7.3761787636907323E+00 H2O
H    6.9145410178309987E+00    8.1884581645518697E+00    6.8640857499645653E+00 H2O
H    7.8169883010843924E+00    6.9236721285654390E+00    6.9630444568707857E+00 H2O
O    1.1540976799776386E+01   -3.5200526478428587E+00    6.5448227212423067E+00 H2O
H    1.0831892354094624E+01   -4.0370799610626165E+00    6.8678277768604552E+00 H2O
H    1.1186917025193154E+01   -2.5627038973995480E+00    6.5787009229530549E+00 H2O
O    1.5645809750402568E+01    8.3423612390435284E+00    1.5683942133025761E+01 H2O
H    1.5421812637501828E+01    8.5673455735988853E+00    1.4757692833448688E+01 H2O
H    1.5976119059344423E+01    9.1528789220877620E+00    1.5904429842361132E+01 H2O
O   -1.6879675309645654E+00    1.2462110760476577E+01    5.2643467708594915E+00 H2O
H   -1.0110456598740656E+00    1.2471265859681194E+01    6.0293377801694428E+00 H2O
H   -2.4927256163267919E+00    1.2318298702101352E+01    5.7889036193281074E+00 H2O
O    6.7893374166334093E+00    6.9074929545396069E+00    1.0026083426126583E+01 H2O
H    6.6701995346920757E+00    7.8421996958390219E+00    1.0287504744802503E+01 H2O
H    6.8538044699076393E+00    7.0091457505948025E+00    9.0799807099615535E+00 H2O
O    7.0709215807741410E+00    4.6720645142339468E+00    1.0237639876320317E+00 H2O
H    7.8928050594775794E+00    4.7702264146759594E+00    1.5179775535589626E+00 H2O
H    6.5998050170464015E+00    5.4893064885164664E+00    1.2591341144096346E+00 H2O
O    6.4236490064538971E+00    1.5522689962553102E+01    1.0331090987408993E+01 H2O
H    6.1174709544891188E+00    1.5326183745844704E+01    9.4224747096535992E+00 H2O
H    5.9891466412209518E+00    1.4766947318804002E+01    1.0794471726935852E+01 H2O
O    3.7845071804856195E-01    1.3809544478816738E+01    1.2122124151917614E+01 H2O
H    2.2456342161950266E-01    1.4190792823424072E+01    1.1257561606959754E+01 H2O
H   -2.1759272744288510E-03    1.4458187166148896E+01    1.2756442487653135E+01 H2O
O    1.6148253825488140E+01    4.0965161484527846E+00    2.9942294591734839E+00 H2O
H    1.5928816026036696E+01    4.6056450724401765E+00    2.1886650530215763E+00 H2O
H    1.5762916652888617E+01    4.6753352821700984E+00    3.6617274605691472E+00 H2O
O   -3.2794560146969610E-02    8.6609357839240371E+00    1.2851104234486057E+01 H2O
H   -6.1317602510515556E-01    9.1682408952869476E+00    1.2270065105569733E+01 H2O
H    7.5662008512188461E-01    8.7107771160603544E+00    1.2315078717531012E+01 H2O
O    8.6091507391603983E+00    1.2557301347723920E+01    9.1802253013249295E+00 H2O
H    9.1102131153763608E+00    1.2880411446135863E+01    9.9093452294056465E+00 H2O
H    8.6690446190880337E+00    1.3451923711695628E+01    8.7518458520474915E+00 H2O
O    6.4641714134716901E+00    9.1703778488281351E+00    1.3932170327441996E+01 H2O
H    6.2265512911779126E+00    9.1399866596903507E+00    1.4884708487299886E+01 H2O
H    6.3270808316153486E+00    1.0086003876282803E+01    1.3750105047017970E+01 H2O
O   -6.3753546362814639E-01    1.1350478840649966E+01    1.8853355744305269E+01 H2O
H   -8.9616799836669747E-01    1.1904015557563426E+01    1.9625645630038445E+01 H2O
H   -1.4805232666115857E+00    1.1245786017813591E+01    1.8427830827590096E+01 H2O
O    6.5696307971856296E+00    4.4007876918293549E+00    6.0756174413166137E+00 H2O
H    6.4176942497101557E+00    4.3061936440191442E+00    7.0413387029556844E+00 H2O
H    6.4178156690016914E+00    5.3630193137620852E+00    5.8841219247401444E+00 H2O
O    3.1631960235368006E+00    3.3532505613636014E+00    9.6710371976618603E+00 H2O
H    3.1598530996826244E+00    3.5506442404017249E+00    1.0554272834352611E+01 H2O
H    2.9211856994695715E+00    2.4310932138183841E+00    9.5679007478429021E+00 H2O
O    5.2878788415304925E+00    7.4840048241290136E-01    1.3089700393706512E+01 H2O
H    5.4233781406855393E+00    1.0933428014980069E+00    1.2186326607124062E+01 H2O
H    4.8071687661663605E+00    1.5003810310483374E+00    1.3497400102318743E+01 H2O
O    2.5053913325607673E+00    1.3586584535388984E+00    7.3714091690696772E+00 H2O
H    1.5806467507876649E+00    1.6177149194327163E+00    7.5539296679088261E+00 H2O
H    2.8183949204284846E+00    1.9496268506240277E+00    6.7057136446303263E+00 H2O
O    5.4622713417730147E+00    1.5491923328890710E+01    5.2489546619395240E+00 H2O
H    5.3179040857454085E+00    1.5344985149882099E+01    6.1996740193307049E+00 H2O
H    6.1900497974573785E+00    1.4849117559252829E+01    5.1531558339357773E+00 H2O
O    1.1265287445675584E+01    6.4261801263965710E+00    8.3866323989399785E+00 H2O
H    1.1330769999782857E+01    6.7065253847676347E+00    7.4655736096459062E+00 H2O
H    1.1973609834242618E+01    6.9006614761559870E+00    8.8460524899694004E+00 H2O
O    1.2819811437419991E+01    6.6634192814054574E+00    1.3484148432760101E+01 H2O
H    1.2692201091122653E+01    7.4485779538220367E+00    1.2853635563116837E+01 H2O
H    1.2845586521129896E+01    5.8814036746328728E+00    1.2871581063170806E+01 H2O
O    7.9937065603170643E+00    3.4923508672766379E-01    2.1181650023032148E+00 H2O
H    8.5473448280438991E+00    8.2738144861918950E-01    1.5274776341148306E+00 H2O
H    8.3427720665030112E+00   -5.3592232092816827E-01    2.1062767966245275E+00 H2O
O    1.0958931016046133E+01   -1.7656199583942149E+00    2.9016530787847969E+00 H2O
H    1.0039746403622885E+01   -2.0617320714972167E+00    2.8274544333305256E+00 H2O
H    1.1424677689757713E+01   -2.5832364581389644E+00    2.6009814587844855E+00 H2O
O   -1.0610346277065812E+00   -5.8720502059073643E-01    2.5861998135274753E+00 H2O
H   -1.2613137702476318E-01   -5.9052309118359980E-01    2.9042003223689234E+00 H2O
H   -1.4377075371477350E+00   -4.1048888159601071E-01    3.4568272196911685E+00 H2O
O    1.5663732599713617E+01    5.4784535932124134E+00    1.2784529512252965E+01 H2O
H    1.5608036224134480E+01    6.4787367959601436E+00    1.2982812279739257E+01 H2O
H    1.4790408479972431E+01    5.2607361509859478E+00    1.2373936361268969E+01 H2O
O    5.0121767129778823E+00   -5.8733275677475314E+00    8.7551348399595312E+00 H2O
H    5.5910572421712184E+00   -6.0724318967211257E+00    9.4790057047796541E+00 H2O
H    4.5756564738440897E+00   -5.0761126737700035E+00    8.9782536307356331E+00 H2O
O    1.4209721306983933E+01    1.1072649618576511E+01   -1.4401302947830761E+00 H2O
H    1.3308696939238320E+01    1.0653062412903788E+01   -1.3377951934840964E+00 H2O
H    1.4344944082228773E+01    1.0969002840108752E+01   -2.4189477819835110E+00 H2O
O    1.6381740664830339E+01    1.6632654982585471E+01    4.4183959967290614E+00 H2O
H    1.7183381450921740E+01    1.7171004129835378E+01    4.2197144737440508E+00 H2O
H    1.6197358041500525E+01    1.6979311505385798E+01    5.2941792990574559E+00 H2O
O    2.8550019151454369E+00    1.2460964361294883E+01    2.2370298779133599E+01 H2O
H    2.1541403635535352E+00    1.3212469178380021E+01    2.2312542089197208E+01 H2O
H    2.8171455638587544E+00    1.2135569071650089E+01    2.1403707394967018E+01 H2O
O    1.1290098576320553E+01    8.8848294479466929E+00    6.8823269850805699E+00 H2O
H    1.0725339132176702E+01    9.4878860937588314E+00    7.4901292020879886E+00 H2O
H    1.2066574295449076E+01    9.3817533984882591E+00    6.6737773612228892E+00 H2O
O    8.7158077622121901E+00    5.0402139638987649E+00    3.1113180971643319E+00 H2O
H    9.5307473182575482E+00    4.6320812692633906E+00    2.7065573574206834E+00 H2O
H    8.3299055664273318E+00    4.1978275190978769E+00    3.4417087267900897E+00 H2O
O    1.1641245637228998E+01    1.0212953291346707E+01    1.4286267379813319E+01 H2O
H    1.1676087358977581E+01    9.6944391977608895E+00    1.5087871849207366E+01 H2O
H    1.0949612767132685E+01    9.7603511737107702E+00    1.3826740598853565E+01 H2O
O    7.4863942329451669E+00    1.8174535883732306E+00    7.5114934474837503E+00 H2O
H    6.6689966154112748E+00    2.1084223265711048E+00    7.8410981481176929E+00 H2O
H    8.0566778990111860E+00    2.5649143723129213E+00    7.7185809668167602E+00 H2O
O    2.8864319309803901E+00    7.8671780132023130E+00    1.1490185069914054E+00 H2O
H    2.8526294999881814E+00    8.4634838405159645E+00    4.3723859038216523E-01 H2O
H    2.3315529983619450E+00    8.2308627788327886E+00    1.8499159807700534E+00 H2O
O    9.3164158553687475E+00   -5.0722645646953648E+00    7.5370313570940342E+00 H2O
H    8.4967968132880483E+00   -5.4286938134535125E+00    7.2359274873133117E+00 H2O
H    9.0282057064056804E+00   -4.5968729883153712E+00    8.3254877641399005E+00 H2O
O    1.8323595580152677E+01    1.1781397931968115E+01    4.1275194606036498E+00 H2O
H    1.8830026593341763E+01    1.2540624465030486E+01    3.6856942225229132E+00 H2O
H    1.7891013237414505E+01    1.1377576893839549E+01    3.4203641421950772E+00 H2O
O    1.5569027250284837E+01    1.2783813099064654E+01    3.7515645985676488E-01 H2O
H    1.5137162251479873E+01    1.2306185204022816E+01   -3.9848301675059378E-01 H2O
H    1.5139107071048388E+01    1.2349896274327845E+01    1.0981747067641465E+00 H2O
O    8.2883226927798574E+00    1.7984687044846031E+00   -4.6003683430346918E+00 H2O
H    7.8817724825165216E+00    2.6652631630779831E+00   -4.6281823555472643E+00 H2O
H    7.6257980257977893E+00    1.1665545940453013E+00   -4.9992867036051054E+00 H2O
O    3.9766596662262188E+00    1.3026588184214608E+01    1.7845993929814234E+01 H2O
H    4.8182078095797092E+00    1.3119001500141385E+01    1.7358505511641141E+01 H2O
H    3.6180668897837283E+00    1.3959097605214337E+01    1.7850413592402273E+01 H2O
O    9.9413885668408177E+00    6.7672777897368608E+00    7.2461785860055161E-01 H2O
H    9.1022671402093085E+00    6.6893719922706270E+00    3.4776714436185513E-01 H2O
H    1.0536315967710319E+01    6.2082064322173558E+00    1.5587356325198815E-01 H2O
O    1.0452132570801830E+01    1.3844300152316210E+01    1.0931167376890794E+01 H2O
H    1.0727835635710509E+01    1.4142730725970802E+01    1.1757432996130662E+01 H2O
H    1.0570276964260753E+01    1.4644455442022995E+01    1.0367418202178435E+01 H2O
O    1.1332982583669997E+01    3.7167837695129529E+00    9.2854020843666767E+00 H2O
H    1.1448712234773087E+01    4.6518598669966975E+00    9.1391837683026029E+00 H2O
H    1.0439891364793370E+01    3.7468973176368485E+00    8.8113343798609680E+00 H2O
O    4.8952273056712867E+00    1.5139713184781266E+01    7.7977568979980934E+00 H2O
H    4.1319384244110093E+00    1.5843293909586963E+01    7.8750910949674156E+00 H2O
H    4.4299778282715092E+00    1.4323774460015281E+01    8.0944988378800424E+00 H2O
O    1.3785926350500034E+01    1.4619089021509344E+01    8.6356040153462619E+00 H2O
H    1.3026772996169543E+01    1.4237165331754964E+01    8.1324870720431974E+00 H2O
H    1.3397420987157938E+01    1.5428622809448777E+01    9.0214601598578401E+00 H2O
O    8.8807441426617402E+00    4.1150642087289002E+00    8.3153800129232884E+00 H2O
H    8.8275390547136432E+00    4.5089094519814781E+00    7.4680707230999879E+00 H2O
H    8.1284322197381425E+00    4.6476705061427008E+00    8.5885365577042396E+00 H2O
O    6.1462504332133223E+00    9.4468857744005188E+00   -4.4655365499712483E+00 H2O
H    5.3626037719336637E+00    9.8079061397014797E+00   -4.0787136412444598E+00 H2O
H    6.5535755043448081E+00    9.1310570805887270E+00   -3.6616261524325320E+00 H2O
O   -4.2940588944401652E+00    1.1139884828946323E+01    1.0795937581506127E+01 H2O
H   -4.8117135036964838E+00    1.1975278622248258E+01    1.0597811246926346E+01 H2O
H   -4.9280033356555437E+00    1.0625741142777855E+01    1.1288431020822134E+01 H2O
O    5.9067765569057018E+00    4.0811312083164664E+00    8.7382645612454066E+00 H2O
H    5.2013494711238426E+00    4.7787224182463026E+00    8.8574085046512412E+00 H2O
H    6.1138596705078907E+00    3.8572113595456261E+00    9.6732068120568204E+00 H2O
O    7.7253546567315778E+00    1.4775728487535057E+01   -1.8368982219284842E+00 H2O
H    7.0218996537487710E+00    1.5412263642600740E+01   -2.1113466943280117E+00 H2O
H    8.4310747818988379E+00    1.5374746720073516E+01   -1.5679681806666157E+00 H2O
O    8.6559980206558187E+00   -8.7156696251927046E-01    7.4830702200052466E+00 H2O
H    8.1221722244646735E+00   -1.2397290744112182E+00    6.7792774924335264E+00 H2O
H    8.1965752489707970E+00   -9.5103373051524734E-02    7.7563880875327103E+00 H2O
O    6.9794035643376446E+00    4.2616838968600481E+00    1.1337790097678692E+01 H2O
H    6.7558727849909639E+00    4.1694787453288278E+00    1.2265345274434738E+01 H2O
H    7.0806744715627357E+00    5.2370348292022033E+00    1.1229374130421274E+01 H2O
O    1.0756020363066195E+01    3.5953934359461734E+00    5.0439582943842769E+00 H2O
H    9.8879264084366572E+00    3.2670946963829297E+00    5.1680467854198273E+00 H2O
H    1.0710379960665762E+01    3.5423998085327022E+00    4.0902737614894367E+00 H2O
O   -1.9590941595683894E-01    1.7851039342839972E+01    7.1229486529620623E+00 H2O
H   -7.3149124738721727E-01    1.7528793757463760E+01    7.8561152901746238E+00 H2O
H   -8.5018146747296319E-01    1.8383514873440255E+01    6.6104485049859045E+00 H2O
O    2.7253713912710724E+00    1.8182006635235041E+01    1.8785289189569987E+01 H2O
H    3.3371127145624566E+00    1.8636927843476176E+01    1.9382809483621397E+01 H2O
H    1.8950783082802665E+00    1.8763680496952635E+01    1.8874218017981622E+01 H2O
O    1.3421075601528370E+01    7.4934665948007968E+00    2.5540771270086218E+00 H2O
H    1.3970051799285606E+01    7.4142400655108549E+00    3.3230094256439076E+00 H2O
H    1.4046440331227567E+01    7.2812000986835832E+00    1.8231389135779850E+00 H2O
O    1.5137509990429271E+01    1.1901611534605989E+01    7.6966553557734319E+00 H2O
H    1.4928148496063180E+01    1.2743660170661382E+01    8.0412573547368478E+00 H2O
H    1.5467318889364005E+01    1.1429908548643757E+01    8.5097808948451235E+00 H2O
O    1.6959138738579014E+01    5.7831888857422395E+00    6.0415149944944091E-01 H2O
H    1.7739825024532585E+01    6.3678113656069257E+00    8.7797441268441012E-01 H2O
H    1.6359576280047705E+01    6.5125545203742288E+00    2.4412050359049525E-01 H2O
O    1.2246983051954089E+01    1.5097589734665572E+01    1.6568805091804915E+01 H2O
H    1.3205439498109833E+01    1.5147796595241129E+01    1.6803881635103117E+01 H2O
H    1.1821262471972210E+01    1.4650864463356726E+01    1.7329981166435871E+01 H2O
O    1.3125726558035725E+01    4.6207953235169077E+00    3.2556684934139763E+00 H2O
H    1.2828922820549860E+01    5.5547793800083225E+00    3.2029240999458781E+00 H2O
H    1.2441730832662900E+01    4.2167088899591016E+00    2.6734018604293159E+00 H2O
O    5.3594719172755232E+00    1.1309387836499077E+01    1.5437373179191956E+01 H2O
H    4.4402388786515257E+00    1.1004715457887547E+01    1.5500909864924287E+01 H2O
H    5.2251096869394882E+00    1.2136439117340680E+01    1.4939474720952720E+01 H2O
O    9.1349149943028252E+00    1.5468167340515502E+00    1.3756771383755259E+01 H2O
H    8.8992631512274993E+00    1.2640168827717881E+00    1.2885655116898821E+01 H2O
H    9.2600591949844571E+00    2.4916280552802914E+00    1.3638657596412902E+01 H2O
O    1.1649065464634603E+01    5.0408845570718714E+00   -3.1566357507445963E-01 H2O
H    1.1810171794310184E+01    5.6046862121324708E+00   -1.0707059672004602E+00 H2O
H    1.2551191805627768E+01    4.8116056029251304E+00   -8.2378433343604826E-02 H2O
O    1.7759938050955244E+00    5.8978120425734746E+00    8.8635263564979514E+00 H2O
H    2.5166581382449240E+00    6.4811423590515593E+00    8.5355661208407785E+00 H2O
H    2.2575405841639324E+00    5.1607060819267661E+00    9.2998922885966291E+00 H2O
O    9.0749300687558634E+00    6.1326870606193369E+00    5.7689320585604573E+00 H2O
H    9.6053315595082669E+00    6.7584193568087443E+00    5.3146177103988865E+00 H2O
H    8.9503007743109499E+00    5.4442509044055178E+00    5.1237326683481159E+00 H2O
O    2.0550516025120817E+00    9.6852826674869643E+00    6.9295482728280344E+00 H2O
H    2.2835349998163190E+00    1.0618407748589709E+01    7.0549157506599283E+00 H2O
H    2.0772373251034502E+00    9.3216819431333331E+00    7.8019864176576021E+00 H2O
O   -7.6457990498682111E+00    1.2764026112931704E+01    1.8691389307886624E+01 H2O
H   -7.5115369861599550E+00    1.2814656797255692E+01    1.7704500209150492E+01 H2O
H   -7.6928341708143684E+00    1.1854922505308977E+01    1.9016933570572327E+01 H2O
O    8.7178754355565058E+00    9.9612380592756757E+00    3.9922850634275817E+00 H2O
H    8.3179674572125446E+00    9.7697925667581949E+00    4.8565938519169505E+00 H2O
H    9.3692536996056752E+00    9.2251889244161855E+00    3.8757891788899950E+00 H2O
O    4.5346893694955668E+00    2.8152186510027004E+00    5.3360309896648994E+00 H2O
H    4.8173334368552938E+00    1.8998988644202062E+00    5.5264173693529868E+00 H2O
H    5.3929063821113825E+00    3.2782281507647237E+00    5.6024717311760481E+00 H2O
O    1.1811169903875411E+01    9.0942297925319302E+00    1.6588585268611912E+01 H2O
H    1.2483510851831280E+01    8.7942023679144441E+00    1.7191806423647275E+01 H2O
H    1.1175508096692523E+01    8.3070077901706991E+00    1.6516270852172575E+01 H2O
O    5.1680204412089674E+00    6.9387452086666785E+00    5.0207512419642839E+00 H2O
H    5.1843087054844208E+00    6.6552216642479376E+00    4.0681826503610878E+00 H2O
H    5.0807390918940962E+00    7.9186669784402701E+00    4.8860861343675168E+00 H2O
O   -9.3836319604124785E-01    1.5139966168141170E+01    1.4089829063741405E+01 H2O
H   -1.1084988701089988E+00    1.6104919204601039E+01    1.4290819757559136E+01 H2O
H   -7.5304904844625553E-01    1.4798966722074903E+01    1.4956595338705879E+01 H2O
O    6.6587515078031192E+00    2.0169228085254108E+01    1.3984490915785170E+01 H2O
H    6.9207873447085726E+00    2.0005636998774161E+01    1.4875490202347377E+01 H2O
H    6.8666125687936184E+00    2.1095298246487687E+01    1.4078284468973928E+01 H2O
O    5.3761107716757230E+00   -4.3569649621159490E-01    1.0361806566338008E+00 H2O
H    6.1893357660370825E+00    8.9156365541454841E-03    1.3653460167669085E+00 H2O
H    4.7508739649361305E+00    3.5908706251300176E-01    8.5354663577224732E-01 H2O
O    1.9076198035716740E+00    1.1893647813311190E+01    1.3052219242772363E+01 H2O
H    1.9477244389425961E+00    1.1994035800541603E+01    1.3998837370729182E+01 H2O
H    1.4444867780132415E+00    1.2730762718341559E+01    1.2841143915441801E+01 H2O
O    3.1223799380537467E+00    6.2453940420576048E-01    1.0897081131203045E+01 H2O
H    2.8568509613874107E+00    1.6546641217173469E-01    1.1661767277044369E+01 H2O
H    2.9073134316210179E+00   -3.3974317615520104E-02    1.0236201172484902E+01 H2O
O    8.3026104941070624E+00    2.6175865402718328E+00    4.2854956739364356E+00 H2O
H    8.0475791495273423E+00    1.8462868958558190E+00    3.8160518052840446E+00 H2O
H    7.6193823925666893E+00    2.5121457967586385E+00    5.0101789701813582E+00 H2O
O    1.2513149911345492E+01    1.1512323762706810E+01    1.7608896004514818E+01 H2O
H    1.2147852515566251E+01    1.0736131275208464E+01    1.7132679350068173E+01 H2O
H    1.2325173201897577E+01    1.1282233274894812E+01    1.8577097343571953E+01 H2O
O    1.3747537838114074E+01   -5.7239752442131557E+00    6.3158067617004843E+00 H2O
H    1.4059646447603841E+01   -5.2609909638087355E+00    5.4683995734658932E+00 H2O
H    1.4072248247985792E+01   -5.0625555574696772E+00    6.9408685827560630E+00 H2O
O    6.6297258047951519E+00   -5.5325650805804685E+00    6.3395857596357681E+00 H2O
H    5.9573695442412058E+00   -5.4477867172627166E+00    5.6602098149247375E+00 H2O
H    6.1702945377462157E+00   -5.1321990539280309E+00    7.0986555125049726E+00 H2O
O    1.2290789141502353E+01    1.6941629815645387E+00   -3.8303587976033548E+00 H2O
H    1.1597777120413811E+01    1.4792527563823856E+00   -4.4670580963825248E+00 H2O
H    1.2148626434264097E+01    1.0418137785765547E+00   -3.0860155995831602E+00 H2O
O    4.5412963217605471E+00    9.6816710289336640E+00    4.4529329542892446E+00 H2O
H    4.9838710376368383E+00    9.8288123181709253E+00    3.6118721464959838E+00 H2O
H    3.7682762155978384E+00    1.0281717438808396E+01    4.3980797626234311E+00 H2O
O    1.3613854160769128E+00    9.1161936772878818E+00    2.9477776820549688E+00 H2O
H    7.8297249755872222E-01    9.7910620495319680E+00    3.3977437186513448E+00 H2O
H    1.6162380929176354E+00    8.5674854653152401E+00    3.7213796445394860E+00 H2O
O    4.0038923688114467E+00    1.0344223939913718E+01    1.2635777911067247E+01 H2O
H    3.1399714428381280E+00    1.0805711713634048E+01    1.2833566798189773E+01 H2O
H    3.7743992888372992E+00    9.4928586309797502E+00    1.3018350169839644E+01 H2O
O    1.7884661463194700E+01    1.4167485285453081E+01    1.5601629537549453E+01 H2O
H    1.7191942600523682E+01    1.3581918846454121E+01    1.5913483664006684E+01 H2O
H    1.7403658182452642E+01    1.5028553726970237E+01    1.5474365247766842E+01 H2O
O    7.7129131392730987E-01    1.4838370549351948E+01    9.2498080781831415E+00 H2O
H    1.1162116813741167E+00    1.4852036893340667E+01    8.3476202817039908E+00 H2O
H   -1.7373796948234638E-01    1.4905352493762193E+01    9.0779692317910676E+00 H2O
O    1.0082276995407783E+01    7.5555937231449652E+00    3.6231534610570306E+00 H2O
H    9.7012193254429935E+00    6.9568569358398120E+00    2.9122938955450541E+00 H2O
H    1.0975739034119107E+01    7.6524723595146220E+00    3.3475348621412899E+00 H2O
O    5.6527166232179509E+00    7.1035179249613920E+00    1.5748273166468467E+00 H2O
H    4.7239136746217136E+00    7.1268634095473704E+00    1.3344668725799693E+00 H2O
H    5.7611384670343435E+00    8.0831876467145065E+00    1.7115515229375531E+00 H2O
O    1.1573536911682076E+01    1.7360298302985235E+00    7.1126377460374437E+00 H2O
H    1.1266469892613333E+01    2.2073489662827241E+00    6.2708075718025116E+00 H2O
H    1.2448331955161692E+01    2.1092195997978327E+00    7.0620679166036826E+00 H2O
O    7.2756199655175422E+00   -2.4321750882149411E+00    5.5337727109916806E+00 H2O
H    7.4975158994681372E+00   -2.5605482723094957E+00    4.5977686296015721E+00 H2O
H    7.3199084286222478E+00   -3.4081766599713155E+00    5.8080712863320754E+00 H2O
O    3.8200831185592632E+00    7.3754594475766071E+00    7.7560594096135338E+00 H2O
H    4.5377328284865452E+00    7.2260421761226263E+00    7.0813877062552191E+00 H2O
H    4.1825738362249956E+00    8.1692651619953072E+00    8.1469279924937741E+00 H2O
O    1.9673715376173110E+01    7.0852496362129136E+00    1.2313561533819726E+01 H2O
H    2.0370496700814854E+01    7.0936664169880022E+00    1.1593605631965557E+01 H2O
H    1.9432556633802324E+01    6.1436128361475841E+00    1.2484619576665381E+01 H2O
O   -1.8241414869197632E+00    1.0173526569596882E+01    1.1226971814211890E+01 H2O
H   -2.6850171522061075E+00    1.0593755120080056E+01    1.1078589481451399E+01 H2O
H   -1.8822221155126728E+00    9.3874946647660202E+00    1.0659198752865466E+01 H2O
O    1.5063166396143718E+01    1.9036207364336626E+00    1.6704256625267841E+00 H2O
H    1.5106516853403088E+01    2.6420672973500672E+00    2.2445551138879472E+00 H2O
H    1.4990981974071159E+01    1.1662070835663039E+00    2.3095119043112948E+00 H2O
O    4.1816033684897382E+00    1.8717955282735470E+01    1.3927054638261822E+01 H2O
H    3.8600030034980324E+00    1.8161223746818884E+01    1.4688531631463547E+01 H2O
H    4.8929176010189899E+00    1.9175829349520047E+01    1.4394312177014390E+01 H2O
O    2.4814869736147398E+00    1.1195411881796444E+01    1.4417113556880223E-01 H2O
H    2.8765670832373931E+00    1.2027042485365879E+01    5.1644872629674698E-01 H2O
H    1.5848498555233044E+00    1.1173377373995379E+01    5.3697450498993604E-01 H2O
O    8.5383011907802775E+00    1.2869603657153746E+01    1.6016665515161279E+01 H2O
H    9.4180396185611439E+00    1.2821416076469763E+01    1.5606438789561512E+01 H2O
H    8.0896449367734764E+00    1.3293957929477518E+01    1.5246947965747381E+01 H2O
O    1.7635397664483452E+01    8.3701587622675948E+00    1.0895337398929675E+01 H2O
H    1.8330782042721673E+01    8.0657209400565186E+00    1.1475247921928283E+01 H2O
H    1.7744489882415973E+01    7.6850307566923890E+00    1.0234397387878836E+01 H2O
O    9.8578488300587974E+00    8.4102846274889949E+00    1.2588090550219516E+01 H2O
H    9.9179586074286696E+00    7.7718205295427349E+00    1.1814139130895811E+01 H2O
H    9.4682628640920381E+00    9.1692905967052987E+00    1.2100460863649150E+01 H2O
O    1.3217775551361164E+00   -1.0956310243643785E+00    5.9580372298409481E+00 H2O
H    1.8158081130373485E+00   -3.5794725251757831E-01    6.3094887941912026E+00 H2O
H    9.1790244757904660E-01   -6.5114659127232299E-01    5.1503135757178073E+00 H2O
O    1.2615487298140115E+01   -2.2519605527482642E-01    4.4194886780534723E+00 H2O
H    1.2026630815257016E+01   -4.6351678229322268E-01    5.1473887445280226E+00 H2O
H    1.2236450824401476E+01   -6.2726503938517142E-01    3.6619129359441138E+00 H2O
O    6.3106980389498215E+00    9.6852603623533202E+00    2.0959065417096028E+00 H2O