#
# Classical MD of liquid water
#
&GLOBAL
  PROJECT run-H2O-64
  RUN_TYPE MD
  IOLEVEL LOW
  &PRINT
   PHYSCON
  &END PRINT
&END GLOBAL

&FORCE_EVAL
  METHOD FIST
  &MM
    &FORCEFIELD
      &BEND
        ATOMS H O H
        KIND HARMONIC
        K [rad^-2kcalmol] 110.0
        THETA0 [deg] 104.52
      &END BEND
      &BOND
        ATOMS O H
        KIND HARMONIC
        K [angstrom^-2kcalmol] 900.0 
        R0 [angstrom] 0.9572
      &END BOND
      &CHARGE
        ATOM O
        CHARGE -0.834
      &END CHARGE
      &CHARGE
        ATOM H
        CHARGE 0.417
      &END CHARGE
      &NONBONDED
        &LENNARD-JONES
          atoms O O
          EPSILON [kcalmol]  0.152073
          SIGMA   [angstrom] 3.1507
          RCUT    [angstrom] 11.4
        &END LENNARD-JONES
        &LENNARD-JONES
          atoms O H
          EPSILON [kcalmol] 0.0836
          SIGMA [angstrom] 1.775
          RCUT  [angstrom] 11.4
        &END LENNARD-JONES
        &LENNARD-JONES
          atoms H H
          EPSILON [kcalmol]  0.04598
          SIGMA   [angstrom] 0.400
          RCUT    [angstrom] 11.4
        &END LENNARD-JONES
      &END NONBONDED
    &END FORCEFIELD
    &POISSON
      &EWALD
        EWALD_TYPE spme
        ALPHA .3
        GMAX 12
        O_SPLINE 6
      &END EWALD
    &END POISSON
  &END MM
  &SUBSYS
    &CELL
      ABC 12.4138 12.4138 12.4138
    &END CELL
     &COORD
O    1.3179575718610121E+01    5.4790650989993817E-01    1.0138295917391645E+01 H2O
H    1.3729994157199220E+01   -2.2618462758760682E-01    9.9448879166003383E+00 H2O
H    1.2327366265896046E+01    1.2945026574926005E-01    1.0341744023423828E+01 H2O
O    9.9536276643655235E+00    4.8635936588159732E+00    1.3799116503434750E+01 H2O
H    9.5099044273603948E+00    4.3845371539044971E+00    1.3113535778842625E+01 H2O
H    9.9781207028118164E+00    5.7915999257597131E+00    1.3490142345135780E+01 H2O
O    2.3770235725744833E+00    5.9179619261347645E+00    4.6462469357142080E+00 H2O
H    1.7706147707868949E+00    5.9635367700261401E+00    5.4041290587090716E+00 H2O
H    3.1301025902844337E+00    5.4209443587829469E+00    5.0360448926441324E+00 H2O
O    1.3875293344164440E+01   -6.4847306446423563E+00    7.3878198933503025E+00 H2O
H    1.3385929874072600E+01   -5.9583286380173028E+00    8.0725316182008342E+00 H2O
H    1.3336866736017317E+01   -7.2923714415315404E+00    7.3082596309123344E+00 H2O
O    1.2129527704638333E+01    7.8946351534489274E+00    9.1132587613101368E+00 H2O
H    1.2859617124764013E+01    8.2757692512428260E+00    9.7165043613920563E+00 H2O
H    1.1579545959415654E+01    7.2686857071405502E+00    9.6232202871361672E+00 H2O
O    3.0541112249178455E+00    4.3665230859618281E-01    4.0516906629451128E+00 H2O
H    2.8235678270235671E+00    8.4675351137391310E-03    4.9192221749745286E+00 H2O
H    3.6874270938471834E+00   -1.7193285379406997E-01    3.6613655376127752E+00 H2O
O    8.7739435703343887E+00    2.0296654745602506E+01    2.1741320743948755E+01 H2O
H    9.5061256712293289E+00    1.9930311940430688E+01    2.2234410457120994E+01 H2O
H    8.1897431075489813E+00    1.9531605503950473E+01    2.1652788682509428E+01 H2O
O    8.3729953745404337E+00    1.3313200476967809E+01    6.5490059150235282E+00 H2O
H    8.3481369092150643E+00    1.2611766812792279E+01    7.2724330835519346E+00 H2O
H    7.6330389083794197E+00    1.3045344314795015E+01    5.9325852951076525E+00 H2O
O    3.8347740687201699E+00    3.7353013049289587E+00    5.3295440410666295E+00 H2O
H    4.5457350554905576E+00    3.8886752518778200E+00    4.6898272335728173E+00 H2O
H    3.2369148200530313E+00    3.4054058724802636E+00    4.6535592828506642E+00 H2O
O    1.6529155722479441E+00    9.5517609637466201E+00    1.3125178995850757E+00 H2O
H    1.4121318630522579E+00    8.7316498276125376E+00    1.7542514562894813E+00 H2O
H    8.8882247897745259E-01    1.0071238257852659E+01    1.5500937117143372E+00 H2O
O    5.5068889157138878E+00    7.6169956983186875E+00    9.0524332783653101E+00 H2O
H    5.0653044553723268E+00    7.0672108238287166E+00    9.7515301121080551E+00 H2O
H    6.1254548385603513E+00    6.8387688502959740E+00    8.7842671058041972E+00 H2O
O   -5.5457439790274732E+00    1.0025817970336012E+01   -2.4611834264253258E+00 H2O
H   -6.1079461921336877E+00    9.2642514391765953E+00   -2.7342845152513404E+00 H2O
H   -4.9144045144772175E+00    9.6171175676037901E+00   -1.8304154681993350E+00 H2O
O    9.0541206244117696E+00    1.6175153934183967E+01    1.6155968244747342E+01 H2O
H    9.3025187462237042E+00    1.6815861502289902E+01    1.5450631691779716E+01 H2O
H    8.5752492236295037E+00    1.5428072635640460E+01    1.5691896550153549E+01 H2O
O    1.3276623713996825E+01    7.1124710688787767E+00    2.6980871981184826E+00 H2O
H    1.3088602123399582E+01    6.3550134957383264E+00    2.1069463623784910E+00 H2O
H    1.3854056538088061E+01    6.7560570467761814E+00    3.3914708478265867E+00 H2O
O    3.7505814141093885E+00    8.1633598356100965E+00    3.5600477769771919E+00 H2O
H    3.9175655217400509E+00    7.9537290957280673E+00    2.6780873639989631E+00 H2O
H    3.2518032762781170E+00    7.3800862256471786E+00    3.9124684591312033E+00 H2O
O    5.8370335966941802E+00    6.8360980946628844E+00    5.3936987996914008E+00 H2O
H    6.3420407871356570E+00    6.1045462064337990E+00    4.9780881969232720E+00 H2O
H    6.2429972016686790E+00    6.8269866665768868E+00    6.2294903628139178E+00 H2O
O    1.0619117927092004E+01    1.9062352835344831E+00    2.0774844391244844E+01 H2O
H    1.1325905429686500E+01    1.3428286117267261E+00    2.0514346002716746E+01 H2O
H    9.8604029858128275E+00    1.3124727196752810E+00    2.1040220190539085E+01 H2O
O    7.3100206414500430E+00    9.1473620125084896E+00   -5.5018694093167726E+00 H2O
H    7.5416668786604779E+00    8.7626213350420414E+00   -4.6359739484844287E+00 H2O
H    6.6260276631116222E+00    9.8076757648831325E+00   -5.2623593190487927E+00 H2O
O    1.1931199291471131E+01    2.7754460310132987E+00    1.3766095260235106E+01 H2O
H    1.1589045083038036E+01    1.9022846827861859E+00    1.3655241429228022E+01 H2O
H    1.1100576420285392E+01    3.2536217892588239E+00    1.3736494621419473E+01 H2O
O    9.9164447724390321E+00    9.6257847059342048E+00    2.5588461227468615E+00 H2O
H    9.5486121926591672E+00    9.8747504302861291E+00    3.4501211087586245E+00 H2O
H    1.0822103670988714E+01    9.9951415268713593E+00    2.5404718564957469E+00 H2O
O    6.1158809562262819E+00    9.7458787203109694E+00    1.4527341376425542E+00 H2O
H    5.8034170106564282E+00    8.7986352727219845E+00    1.4258520536241788E+00 H2O
H    6.1628505028496940E+00    9.8850015312264592E+00    2.4663429396891838E+00 H2O
O    5.4280974188541169E+00   -8.9017843407074633E+00   -1.9582461476740851E+00 H2O
H    5.0594735879119686E+00   -8.9351379223448344E+00   -2.8497148299691513E+00 H2O
H    5.8904225353174580E+00   -9.7061952928008051E+00   -1.7767233694381093E+00 H2O
O    7.6408958867305312E+00    1.7514096120537093E+00    2.8397055489592442E+00 H2O
H    7.4933305821509526E+00    1.1939388392391630E+00    3.6202716955773320E+00 H2O
H    6.9257097969375918E+00    1.3452348082539243E+00    2.3549085387142776E+00 H2O
O    1.0643781846822030E+01    6.0949181800941217E+00    1.0481243907518893E+01 H2O
H    1.0223821867558160E+01    6.2642347284253361E+00    1.1356710896705085E+01 H2O
H    1.1048384500251506E+01    5.2130198610194496E+00    1.0713901798226628E+01 H2O
O    1.7776427722790331E+01    1.3208256163262858E+01    1.3693853668252373E+01 H2O
H    1.7346398114132565E+01    1.2367750037893295E+01    1.3460987869770616E+01 H2O
H    1.7257403442245035E+01    1.3866800313695762E+01    1.3175861309913417E+01 H2O
O    1.4163712052064829E+01    5.8061175704471655E+00   -1.7636140094913566E+00 H2O
H    1.3966582732904305E+01    5.6122738597690081E+00   -8.1920215615528080E-01 H2O
H    1.3680117930633934E+01    5.0713588125659692E+00   -2.2179209185015019E+00 H2O
O    5.9365523905054811E+00    4.5849765037126264E+00    9.1533260832168262E-01 H2O
H    6.3411525861442897E+00    4.5977060105824599E+00    1.4994516185507066E-02 H2O
H    5.3196400667839416E+00    3.8648084936712883E+00    8.0941319407346501E-01 H2O
O    1.1952752671340612E+01    3.7402473124953359E+00    1.0265859189380937E+01 H2O
H    1.2849763640900189E+01    3.3378109485011018E+00    1.0307589331463772E+01 H2O
H    1.1597701673007489E+01    3.2964457734550701E+00    9.5260979013447340E+00 H2O
O    1.7681717625873546E+01    1.2124579998800032E+01    1.0322485303531616E+01 H2O
H    1.6845891827513309E+01    1.1845755422849933E+01    1.0751773994470337E+01 H2O
H    1.8198089734253678E+01    1.1297356707962580E+01    1.0446084315669756E+01 H2O
O    2.0941783167359782E+00    1.0713786620084713E+01    9.4938566217560059E+00 H2O
H    2.5903036862914011E+00    1.0149111312447696E+01    8.9034504283040352E+00 H2O
H    2.0974620375626771E+00    1.0240686933613546E+01    1.0329696577874094E+01 H2O
O   -2.9750407026876688E+00    1.2074283970326455E+01    1.1220576375963724E+01 H2O
H   -3.2137343970489307E+00    1.1724399236833856E+01    1.0381011598913807E+01 H2O
H   -2.9740914666982539E+00    1.1347320993298844E+01    1.1897609021211709E+01 H2O
O    5.3651778423102598E+00   -1.4021455855714156E+00    7.5041110139944722E+00 H2O
H    5.4156221483256166E+00   -8.2034714333132952E-01    8.2676601930771696E+00 H2O
H    4.4526102536605388E+00   -1.1705677558509193E+00    7.1640184856004492E+00 H2O
O    2.8315103809449536E+00    1.9405828770546177E-01   -5.0296346582193445E+00 H2O
H    2.3974451532902088E+00    1.0652147325016803E+00   -4.7190989308435762E+00 H2O
H    2.5013444024881308E+00   -3.6046281007827430E-01   -4.3284776483566851E+00 H2O
O    1.0177284463938937E+01    6.0989256491528154E-01    1.3832387335738183E+01 H2O
H    9.3882179594844626E+00    9.6621876184752586E-01    1.4330818287593226E+01 H2O
H    9.7661296151994783E+00    5.3481801378239824E-01    1.2928169445717396E+01 H2O
O   -1.0280601031813147E+01    2.8836858529698524E+00    1.0237267021134564E+01 H2O
H   -1.0634160288333291E+01    1.9441447326315269E+00    1.0158505850418837E+01 H2O
H   -9.5201898669081970E+00    2.8936925199237686E+00    9.7094358416838737E+00 H2O
O    1.5363316809197896E+01    8.2646054000142914E+00    8.0541492626140592E+00 H2O
H    1.4953062171291956E+01    7.4289677355063990E+00    7.8521378426861785E+00 H2O
H    1.6243435540773351E+01    7.9659528539006974E+00    8.2747147174505322E+00 H2O
O    6.2364981286204788E+00    9.2871494288813405E+00    4.1446528363421775E+00 H2O
H    6.6018828085186483E+00    8.6843525247926756E+00    4.8667256155844365E+00 H2O
H    5.3578333224064920E+00    8.8721759078659410E+00    4.0174425914490755E+00 H2O
O    8.4886380784789282E+00    9.9596427076484435E+00    1.2560225347893455E+01 H2O
H    8.7821794362392129E+00    9.8900053390315037E+00    1.3545580222427258E+01 H2O
H    7.5274553438720533E+00    9.8204840343314874E+00    1.2826068063072995E+01 H2O
O    3.7371614954125185E+00    2.9028479944585772E+00    1.3030776282614353E+01 H2O
H    3.2393733157943689E+00    2.8362945117624356E+00    1.2207799257228988E+01 H2O
H    3.0962907427594706E+00    2.8371292260523386E+00    1.3743542409538444E+01 H2O
O    3.8811391601989698E+00   -1.9152013038522633E+00   -1.0107888750350943E-01 H2O
H    3.0422196108637340E+00   -2.2499509219626597E+00    4.3415526116948999E-01 H2O
H    4.6617598861288716E+00   -2.2503834128926989E+00    3.6483880621857107E-01 H2O
O    4.4384726830663270E+00    6.0161319609654331E+00    1.0938803973268236E+01 H2O
H    3.5022061487590395E+00    6.0055308781346710E+00    1.0553414170579110E+01 H2O
H    4.7091541210352652E+00    5.1221354956721550E+00    1.0882939800158059E+01 H2O
O    3.2010162099345139E+00    9.9382149369565802E+00    5.6385198771659804E+00 H2O
H    3.5519789995618369E+00    9.2290513980037723E+00    6.1979813768689755E+00 H2O
H    3.2426433484857902E+00    9.4051464456414919E+00    4.8382126563338401E+00 H2O
O    6.0439878798883093E+00    4.4992227675237970E+00    1.6211324044379108E+01 H2O
H    6.9518202088320704E+00    4.3349332375477836E+00    1.5835263106699157E+01 H2O
H    5.6482267181758337E+00    4.6766899322540247E+00    1.5345787400589728E+01 H2O
O    1.0550030979014643E+01    3.1108247722669169E-01    5.2700301113225194E+00 H2O
H    9.7326337968700187E+00    5.8381093479721125E-01    5.7802261847964385E+00 H2O
H    1.0200587074152550E+01   -5.4980466467588607E-01    5.0489263829211621E+00 H2O
O    1.0743540094346567E+01    8.6697198394372883E+00    6.9488644031901030E+00 H2O
H    1.1333804950840177E+01    8.5400067020005377E+00    7.7217457511885401E+00 H2O
H    1.0444977725697893E+01    7.7482644645706156E+00    6.7974808532505637E+00 H2O
O    7.4086816765435035E+00    5.6564545916412561E+00    8.8484522300208130E+00 H2O
H    7.8411854987833447E+00    5.0682673725476377E+00    9.5069531171534223E+00 H2O
H    7.6888985731794346E+00    5.2420902174776769E+00    7.9794750530015301E+00 H2O
O    6.5304384212801052E+00   -2.7769153592291246E-01    4.7261439243885937E+00 H2O
H    5.8240062859380402E+00   -3.7531481318847804E-01    5.3494426078659698E+00 H2O
H    6.6755597379463829E+00   -1.2200489132103696E+00    4.5495006888834153E+00 H2O
O    1.3776621952239594E+01    4.9400146219073378E+00    9.7496569153082002E-01 H2O
H    1.3146887236195678E+01    4.2783665150649837E+00    1.2423982623668204E+00 H2O
H    1.4588652634538638E+01    4.6161582617201651E+00    1.3910576814667936E+00 H2O
O   -1.9598164736963946E+00    6.0081886991847249E+00    6.6119397131984599E+00 H2O
H   -2.7423813282716658E+00    5.4744341218776009E+00    6.3083225165984249E+00 H2O
H   -1.1647598989605574E+00    5.4004415374064854E+00    6.5199754827848597E+00 H2O
O   -3.0009130638177743E+00    1.0300173821648237E+01    5.2893353992866787E+00 H2O
H   -3.9700269724568313E+00    1.0084977306869890E+01    5.4898198176345883E+00 H2O
H   -2.4501366922780394E+00    9.6110719935545728E+00    5.8310894014340242E+00 H2O
O   -2.9132110757099845E+00    1.1219361045211702E+01    8.6425219556401807E+00 H2O
H   -1.9941706450920011E+00    1.1243266084151333E+01    8.2683821675278644E+00 H2O
H   -3.0100629466102289E+00    1.0272574716424469E+01    8.6980863767205019E+00 H2O
O    9.8850977569361849E+00    7.4365684976003434E+00    5.2239969327177649E-01 H2O
H    9.5852947030431324E+00    8.2704478430912438E+00    1.0011458630598569E-01 H2O
H    1.0161728597210834E+01    7.9057929689370585E+00    1.3419426164960016E+00 H2O
O    4.9210312665621849E+00    7.1284503688445566E+00    1.2128022814850854E+00 H2O
H    5.5999477334692997E+00    6.4339236771431763E+00    1.4255705521332300E+00 H2O
H    4.4792593518274044E+00    6.7051316447853750E+00    4.0717924593518789E-01 H2O
O    3.0653323247170111E-01   -1.9943607922506830E+00    5.3090584432549726E+00 H2O
H    1.2555383457849998E+00   -2.2093765330575201E+00    5.1631140226757335E+00 H2O
H   -1.9154317882737817E-01   -2.8419620410742854E+00    5.4098971344037441E+00 H2O
O    7.2437932312055144E+00    1.4210120830349244E+00   -1.5122658252091541E+00 H2O
H    6.4685522795071853E+00    8.4570149210720169E-01   -1.8152346136016682E+00 H2O
H    7.8378966440860811E+00    8.0729891334456216E-01   -1.0429230108877503E+00 H2O
O    2.4025615459667766E+00    1.5289762365249533E+01    3.0581388264942673E+00 H2O
H    1.4565177805569016E+00    1.5395365578191818E+01    3.4208465973426465E+00 H2O
H    2.5391360712308897E+00    1.4357640070539741E+01    3.2883291510883477E+00 H2O
O    3.8658594567563909E+00    2.9099793476521092E+00   -4.3112341335169733E+00 H2O
H    3.4824141250624860E+00    3.6091045383748259E+00   -4.8770673058197609E+00 H2O
H    4.0618639253832951E+00    2.2703265250835392E+00   -5.0011595939060864E+00 H2O
O    1.1955698785881090E+01    1.5346835632503330E+01    4.4851617754506128E+00 H2O
H    1.1602535819971205E+01    1.4454414443000010E+01    4.3849973205322454E+00 H2O
H    1.1339143435863903E+01    1.5919865735792063E+01    3.8851368196052114E+00 H2O
O    1.2051778740661719E+01    1.1382727689412597E+01    2.8845812465407574E+00 H2O
H    1.2314539528668268E+01    1.1458558722418369E+01    3.8312413135140582E+00 H2O
H    1.1423329798783923E+01    1.2052481584456142E+01    2.7141559179770081E+00 H2O
O   -3.3617391942163799E+00    1.5734939401037522E+01    1.1428873901078660E+01 H2O
H   -2.6755335515330017E+00    1.5240913873934598E+01    1.1035485978477976E+01 H2O
H   -4.0495346327697295E+00    1.5120139810964373E+01    1.1083682447033709E+01 H2O
O    8.2962532882714015E+00    4.1599425879547365E+00    6.3790146186399364E+00 H2O
H    8.5322807127343605E+00    4.1366749298165306E+00    5.4802513423191224E+00 H2O
H    8.0152385377197497E+00    3.2327454675090275E+00    6.5535105171323256E+00 H2O
O   -2.4917365749923998E-01    3.7746475242622970E+00    6.8603883696483070E+00 H2O
H   -9.5513007657119631E-01    3.2370956935468129E+00    7.2002888806938170E+00 H2O
H   -3.9312248723353793E-01    3.4485593627778699E+00    5.9313702249619586E+00 H2O
O    1.2132175324082535E+01   -6.6542904852753368E-02    7.3316890914794364E+00 H2O
H    1.2803662601033347E+01   -7.0989499718779936E-01    6.9803454069143154E+00 H2O
H    1.1582799637330638E+01    9.0680163033318342E-02    6.5189865771903026E+00 H2O
O    1.3652013353922525E+01    8.4789885347925900E+00    1.1091749617318012E+01 H2O
H    1.3406204736334532E+01    8.6465261235983437E+00    1.1981311307693552E+01 H2O
H    1.3937565708656582E+01    7.5567112695686429E+00    1.1068525610044340E+01 H2O
     &END COORD
    &TOPOLOGY
      CONNECTIVITY GENERATE
    &END
  &END SUBSYS
&END FORCE_EVAL

&MOTION
 &MD
   ENSEMBLE NVE
   TIMESTEP 0.5
   STEPS  600000
   TEMPERATURE 325.9
   &PRINT 
     &ENERGY
        &EACH
           MD 20
        &END
     &END ENERGY
     &PROGRAM_RUN_INFO
        &EACH
           MD 20
        &END
     &END PROGRAM_RUN_INFO
   &END PRINT
 &END MD
 &PRINT 
  &TRAJECTORY
     &EACH
        MD 20
     &END
  &END
  &VELOCITIES OFF
  &END VELOCITIES
  &FORCES OFF
  &END FORCES
  &RESTART_HISTORY OFF
  &END RESTART_HISTORY 
  &RESTART 
      &EACH
          MD 200
      &END
  &END RESTART
 &END PRINT
&END MOTION
