#
# Classical MD of liquid water
#
&GLOBAL
  PROJECT run-H2O-32
  RUN_TYPE MD
  IOLEVEL LOW
  &PRINT
   PHYSCON
  &END PRINT
&END GLOBAL

&FORCE_EVAL
  METHOD FIST
  &MM
    &FORCEFIELD
      &BEND
        ATOMS H O H
        KIND HARMONIC
        K [rad^-2kcalmol] 110.0
        THETA0 [deg] 104.52
      &END BEND
      &BOND
        ATOMS O H
        KIND HARMONIC
        K [angstrom^-2kcalmol] 900.0 
        R0 [angstrom] 0.9572
      &END BOND
      &CHARGE
        ATOM O
        CHARGE -0.834
      &END CHARGE
      &CHARGE
        ATOM H
        CHARGE 0.417
      &END CHARGE
      &NONBONDED
        &LENNARD-JONES
          atoms O O
          EPSILON [kcalmol]  0.152073
          SIGMA   [angstrom] 3.1507
          RCUT    [angstrom] 11.4
        &END LENNARD-JONES
        &LENNARD-JONES
          atoms O H
          EPSILON [kcalmol] 0.0836
          SIGMA [angstrom] 1.775
          RCUT  [angstrom] 11.4
        &END LENNARD-JONES
        &LENNARD-JONES
          atoms H H
          EPSILON [kcalmol]  0.04598
          SIGMA   [angstrom] 0.400
          RCUT    [angstrom] 11.4
        &END LENNARD-JONES
      &END NONBONDED
    &END FORCEFIELD
    &POISSON
      &EWALD
        EWALD_TYPE spme
        ALPHA .3
        GMAX 12
        O_SPLINE 6
      &END EWALD
    &END POISSON
  &END MM
  &SUBSYS
    &CELL
      ABC 9.8528 9.8528 9.8528
    &END CELL
     &COORD
O    3.7556566622098573E+00    1.4768713607107433E+01    1.0901514237357701E+00 H2O
H    3.5444218796462823E+00    1.5720648831112362E+01    1.1612181278175189E+00 H2O
H    2.9033599053664503E+00    1.4353805218831843E+01    1.0543224105421338E+00 H2O
O    6.3194390813090939E-01   -7.5983062120343248E-01    7.0312918040265862E+00 H2O
H    1.2208453050832693E+00   -1.2241440489434061E+00    6.3670661433450135E+00 H2O
H   -3.2530321520657407E-01   -1.0154871087421997E+00    6.8486413039594716E+00 H2O
O   -1.2614589866202652E+00    1.1753704171667193E+01   -6.3926397136267310E+00 H2O
H   -4.4606800209870329E-01    1.1909019288266599E+01   -5.9121780077431740E+00 H2O
H   -1.8432918834716185E+00    1.2382177301482679E+01   -5.9608933812401652E+00 H2O
O   -6.7252090814345902E+00    8.2841231882767055E+00    8.8553587936431786E+00 H2O
H   -7.0220426550493418E+00    7.6749632325176984E+00    8.2050093565846645E+00 H2O
H   -7.5166019364937489E+00    8.7565069037469119E+00    8.9142276306765496E+00 H2O
O    4.6220738791659093E+00    2.3620572692112809E+00   -1.2007809237117042E+00 H2O
H    4.5517797906317972E+00    3.3054728518921928E+00   -1.4487867989202192E+00 H2O
H    4.0866424199851537E+00    1.9048193266889404E+00   -1.9256719275117675E+00 H2O
O    1.1384005216384232E+01    3.4009542587030768E+00    5.8349212886169810E-01 H2O
H    1.0410013752171020E+01    3.3539662968348751E+00    7.0283532352357025E-01 H2O
H    1.1545675091084576E+01    2.5063441838306453E+00    4.1593795765449365E-01 H2O
O    6.9334528209798432E+00    5.8402761044480478E+00    1.3406397302279272E+01 H2O
H    7.2273207953619716E+00    6.5864664259836676E+00    1.2855048506529959E+01 H2O
H    6.0096788573092361E+00    6.0643824676428686E+00    1.3567023944812167E+01 H2O
O    4.2796578784809043E+00    6.5061165141380828E+00   -5.9621149549495325E+00 H2O
H    3.6979818012371393E+00    5.6932990664957090E+00   -5.8917834262776756E+00 H2O
H    3.9924139017790914E+00    6.7583151300346955E+00   -6.8371387452201819E+00 H2O
O    6.0596066599653646E+00    8.3053827530106350E+00   -1.4417005353043346E+00 H2O
H    5.1092987547788251E+00    8.3017670189598647E+00   -1.1657979089552057E+00 H2O
H    5.9485598290122814E+00    8.7563923305974640E+00   -2.2749744405843071E+00 H2O
O    8.8922394990582294E+00    5.5876735213964519E+00    7.3542187212341812E+00 H2O
H    9.2012129870659152E+00    6.2094680608137116E+00    6.6401338643810153E+00 H2O
H    9.7797893776459439E+00    5.1838454718246219E+00    7.5556474217306402E+00 H2O
O    1.8719567520145570E+00    4.9610172892322053E+00    7.8782588876464343E+00 H2O
H    2.3390171715776162E+00    4.2392355011791922E+00    7.4166901734281714E+00 H2O
H    2.1443985427858330E+00    4.8444005264226018E+00    8.8028504218590609E+00 H2O
O    1.4229582850662508E+01    1.5072518872863452E-01    3.5979625241868156E+00 H2O
H    1.4126126793103632E+01    3.6481164527745030E-01    2.6182149779676331E+00 H2O
H    1.4325725315002643E+01    1.0207612426231532E+00    3.9956916543185863E+00 H2O
O    2.5453902615669270E+00   -5.2744955786465546E+00    4.0409688799567727E+00 H2O
H    2.2949321691031548E+00   -5.8700768422404872E+00    3.3687354034222761E+00 H2O
H    1.6794811964457856E+00   -4.8084345537340578E+00    4.1946382322925473E+00 H2O
O    8.5680874516967431E-01    3.8622546726597295E-01   -3.0915630955989498E-01 H2O
H    8.9629562744982738E-01    1.7399924492700214E-01   -1.2812916829434904E+00 H2O
H   -5.9676777152071057E-02    4.1964430079238840E-01   -1.3061410584134478E-01 H2O
O    9.9816208003961400E+00    6.0563505544515621E+00    4.5503090299098208E+00 H2O
H    9.6924621208509762E+00    6.9726123790130972E+00    4.6082086244871094E+00 H2O
H    9.5353276898937107E+00    5.9093193901004550E+00    3.6685956150169980E+00 H2O
O    1.0368634026363321E+01   -2.0011741574538666E+00    1.1105964795130417E+01 H2O
H    9.6502092551902052E+00   -2.6156788475696802E+00    1.0862921529060806E+01 H2O
H    1.0096545424980674E+01   -1.2681109071650352E+00    1.0538602540552819E+01 H2O
O   -2.2920650409406544E+00    3.8950463029215348E+00   -4.4806376324106401E+00 H2O
H   -2.2678780257994648E+00    4.6888261502450508E+00   -4.9246892415549546E+00 H2O
H   -1.6438591772748519E+00    4.0016603586255526E+00   -3.7715913642394669E+00 H2O
O    1.0516929700784745E+01    1.7592521502084035E+00    5.5844386130739609E+00 H2O
H    1.0416245021944471E+01    9.6716095233435195E-01    6.1651472695453142E+00 H2O
H    1.1275818877568765E+01    2.2370494311083120E+00    5.9839723750817226E+00 H2O
O    5.1020265431915934E+00    2.6278725120595792E+00    1.4650232794840884E+01 H2O
H    6.0202888044476248E+00    2.8244766197430806E+00    1.4967790067393945E+01 H2O
H    5.1483157218556332E+00    2.9280438397621467E+00    1.3746403623164328E+01 H2O
O    3.2047639036546474E+00   -2.4132723941485668E+00    1.5558880715172005E+00 H2O
H    2.2583718588324997E+00   -2.2175384579634065E+00    1.5814451510626621E+00 H2O
H    3.4936228839214376E+00   -1.8127545687169384E+00    8.3551302902666003E-01 H2O
O    6.6158111079865991E+00    5.1502196687043869E+00   -9.3771264683255418E-01 H2O
H    7.1256816772668756E+00    5.0167585655421654E+00   -1.7615519830977995E+00 H2O
H    6.2598316731996162E+00    5.9581664790896962E+00   -1.2331970374854035E+00 H2O
O    5.7612744101264006E+00    3.6564114680258970E+00    2.3175881246434158E+00 H2O
H    6.2882835132177473E+00    4.4506838037201355E+00    2.5380037673672748E+00 H2O
H    5.0680438517854833E+00    4.0083085304412851E+00    1.6847316099747294E+00 H2O
O    3.4125893071733215E+00    1.0667212443608454E+01    1.1053695769590925E+01 H2O
H    3.5797759431937251E+00    1.1568073498148413E+01    1.0658355689451962E+01 H2O
H    2.6825604989804970E+00    1.0283112055976284E+01    1.0515415761838232E+01 H2O
O    6.5619157631176099E+00    1.1533400126809385E+01    1.0384635608462327E+01 H2O
H    5.8674625524952244E+00    1.1764380607265066E+01    9.7053606946823319E+00 H2O
H    6.3201901099781743E+00    1.2132296310199267E+01    1.1124204644695633E+01 H2O
O    8.0404505733970897E+00    9.2247537046554609E+00    1.0048945650795101E+01 H2O
H    7.4815945482440487E+00    1.0005510118226647E+01    1.0152641045478505E+01 H2O
H    7.4870176003067916E+00    8.5924713444234815E+00    9.5496456215850873E+00 H2O
O    8.7939379230751840E+00    3.0248014169991686E+00    1.0839939709933747E+01 H2O
H    7.9919756943464515E+00    2.7547085349892972E+00    1.0332040374047715E+01 H2O
H    8.7374263640331051E+00    2.4506288157912137E+00    1.1653872072767856E+01 H2O
O    2.1857429613522625E+00    8.2721289092963328E+00    1.4984473240393532E+01 H2O
H    2.7432030784646240E+00    8.9358920086513365E+00    1.4726712476862897E+01 H2O
H    2.3074134093857888E+00    7.7114478995397873E+00    1.4267859165630700E+01 H2O
O   -1.1938671198568593E+00    5.8139013758814633E+00    8.1072544702123428E-01 H2O
H   -8.5873708336687748E-01    4.8700613261131513E+00    8.1811262999348555E-01 H2O
H   -1.9604992804018000E+00    5.5216188433974223E+00    2.6198029600275996E-01 H2O
O    1.2874270504035652E+01    1.3105036915890631E+01    6.3461803352802741E+00 H2O
H    1.2596159194738666E+01    1.3563477274801361E+01    5.4905409769379920E+00 H2O
H    1.3756071028349959E+01    1.3034444635170439E+01    6.0346959462240664E+00 H2O
O    8.1058666575105818E+00    8.2394582409332351E+00    3.2431432102783786E+00 H2O
H    7.9640292932727297E+00    9.1049696132067268E+00    3.4954784294648160E+00 H2O
H    8.5635386129061697E+00    8.1998526582322793E+00    2.3879245978462995E+00 H2O
O   -4.3503223975863854E+00    8.3296300303320141E+00    5.4613180346922965E+00 H2O
H   -4.6885782713372537E+00    7.7138496835168233E+00    4.7970955321124764E+00 H2O
H   -4.9899538602896589E+00    9.0217706391812360E+00    5.2200673713834815E+00 H2O
O    8.1214875385800891E+00    8.0294330430204504E+00    6.3149410912474648E+00 H2O
H    7.4631543744438567E+00    8.0969262371502779E+00    5.6311252960977010E+00 H2O
H    7.5802506153057303E+00    7.7102650030002664E+00    7.0268052414686659E+00 H2O
     &END COORD
    &TOPOLOGY
      CONNECTIVITY GENERATE
    &END
  &END SUBSYS
&END FORCE_EVAL

&MOTION
 &MD
   ENSEMBLE NVE
   TIMESTEP 0.5
   STEPS  800000
   TEMPERATURE 310
   &PRINT 
     &ENERGY
        &EACH
           MD 20
        &END
     &END ENERGY
     &PROGRAM_RUN_INFO
        &EACH
           MD 20
        &END
     &END PROGRAM_RUN_INFO
   &END PRINT
 &END MD
 &PRINT 
  &TRAJECTORY
     &EACH
        MD 20
     &END
  &END
  &VELOCITIES OFF
  &END VELOCITIES
  &FORCES OFF
  &END FORCES
  &RESTART_HISTORY OFF
  &END RESTART_HISTORY 
  &RESTART OFF
  &END RESTART
 &END PRINT
&END MOTION
