@set       K_HO    DUMMY  
@set      R0_HO    DUMMY  
@set      K_HOH    DUMMY  
@set THETA0_HOH    DUMMY  
@set        Q_H    DUMMY  
@set        Q_O    DUMMY  

@set     EPS_HH    0.00000
@set     EPS_HO    0.00000
@set     EPS_OO    0.00000
@set   SIGMA_HH    2.50000
@set   SIGMA_HO    0.90000
@set   SIGMA_OO    2.50000

@SET SYSTEM run-1H2O-GOPT

&GLOBAL
  PROJECT ${SYSTEM}
  RUN_TYPE GEO_OPT
  PRINT_LEVEL LOW
&END GLOBAL

&FORCE_EVAL
  METHOD Fist

  &MM
    &FORCEFIELD
      &CHARGE
        ATOM                H
        CHARGE              ${Q_H}
      &END CHARGE
      &CHARGE
        ATOM                O
        CHARGE              ${Q_O}
      &END CHARGE

      &BOND
        ATOMS               H O
        KIND                Harmonic
        K [kcalmol/angstrom^2] ${K_HO}
#        KIND                Morse
#        K                   ${K_HO_a} ${K_HO_b}
        R0 [angstrom]       ${R0_HO}
      &END BOND

      &BOND
        ATOMS               H H
        KIND                Harmonic
        K [angstrom^-2eV]   0
        R0 [angstrom]       10
      &END BOND

      &BEND
        ATOMS               H O H
        KIND                Harmonic
        K [kcalmol/rad^2]   ${K_HOH}
        THETA0 [deg]        ${THETA0_HOH}
      &END BEND

      &NONBONDED
        &LENNARD-JONES
          ATOMS             H H
          EPSILON [eV]      ${EPS_HH}
          SIGMA [angstrom]  ${SIGMA_HH}
          RCUT [angstrom]   12.0
        &END LENNARD-JONES
        &LENNARD-JONES
          ATOMS             H O
          EPSILON [eV]      ${EPS_HO}
          SIGMA [angstrom]  ${SIGMA_HO}
          RCUT [angstrom]   12.0
        &END LENNARD-JONES
        &LENNARD-JONES
          ATOMS             O O
          EPSILON [eV]      ${EPS_OO}
          SIGMA [angstrom]  ${SIGMA_OO}
          RCUT [angstrom]   12.0
        &END LENNARD-JONES
      &END NONBONDED

#      &SPLINE
#        EMAX_SPLINE [eV] 10
#      &END SPLINE

    &END FORCEFIELD

    &POISSON
      &EWALD
        EWALD_TYPE none
      &END EWALD
    &END POISSON

  &END MM

  &SUBSYS

    &CELL
      ABC [angstrom]  15 15 15
      PERIODIC NONE
    &END CELL

    &COORD
O  0 0 0      H2O
H  0.7 0.7 0  H2O
H -0.7 0.7 0  H2O
    &END COORD

  &END SUBSYS

&END FORCE_EVAL

&MOTION
  &GEO_OPT
  &END GEO_OPT

  &PRINT
    &TRAJECTORY  SILENT
      FILENAME =${SYSTEM}.xyz
      &EACH
        MD 1
      &END EACH
    &END TRAJECTORY
    &FORCES  SILENT
      FILENAME =${SYSTEM}.force
      &EACH
        MD 1
      &END EACH
    &END FORCES
  &END PRINT

&END MOTION
