&GLOBAL
  PRINT_LEVEL LOW
  PREFERRED_FFT_LIBRARY  FFTSG
  PROJECT deca_ala_md_1536 ! 1536, 1636, 1736, 1836, 1936, 2036
  RUN_TYPE MD
&END GLOBAL

&MOTION
 &CONSTRAINT
    &COLLECTIVE
      COLVAR 1
      INTERMOLECULAR
      TARGET [angstrom] 15.36 ! 16.36, 17.36, 18.36, 19.36, 20.36
    &END COLLECTIVE
    &LAGRANGE_MULTIPLIERS
      COMMON_ITERATION_LEVELS 1
    &END
 &END CONSTRAINT
 &MD
   ENSEMBLE NVT
   TIMESTEP 0.5
   STEPS    5000
   TEMPERATURE 1
   &THERMOSTAT
     &NOSE
       LENGTH 3
       YOSHIDA 3
       TIMECON 1000
       MTS 2
     &END NOSE
   &END
   &PRINT 
     &ENERGY OFF
     &END ENERGY
     &PROGRAM_RUN_INFO OFF
     &END PROGRAM_RUN_INFO
   &END PRINT
 &END MD
 &PRINT 
  &VELOCITIES OFF
  &END VELOCITIES
  &FORCES OFF
  &END FORCES
  &RESTART_HISTORY OFF
  &END RESTART_HISTORY 
  &RESTART OFF
  &END RESTART
 &END PRINT
&END MOTION

&FORCE_EVAL
  METHOD FIST
  &MM
    &FORCEFIELD
      parm_file_name par_all27_prot_lipid.inp
      parmtype CHM
      &SPLINE
        EMAX_SPLINE     1.0E8
        RCUT_NB         10.0
      &END SPLINE
    &END FORCEFIELD
    &POISSON
      &EWALD
        EWALD_TYPE spme
        ALPHA .35
        GMAX 40 40 40
      &END EWALD
    &END POISSON
  &END MM
  &SUBSYS
    &COLVAR
      &DISTANCE
        ATOMS 7 98
      &END DISTANCE
    &END
    &CELL
      ABC 40.0 40.0 40.0
    &END CELL
    &TOPOLOGY
      CONN_FILE_FORMAT    PSF
      COORD_FILE_FORMAT   PDB
      COORD_FILE_NAME     deca_ala.pdb
      CONN_FILE_NAME      deca_ala.psf
    &END TOPOLOGY
  &END SUBSYS
  &PRINT
    &PROGRAM_RUN_INFO
      &EACH
        MD 10
      &END EACH
    &END PROGRAM_RUN_INFO
  &END PRINT
&END FORCE_EVAL

!&EXT_RESTART
!  RESTART_FILE_NAME deca_ala_minimize.restart
!  RESTART_DEFAULT    F
!  RESTART_POS        T
!&END EXT_RESTART
