&FORCE_EVAL
  METHOD FIST
  &MM
    &FORCEFIELD
      parmtype CHM
      parm_file_name toppar/par_all36m_prot.prm
      &SPLINE
         EMAX_SPLINE 1.0e6 # default 0.5
         RCUT_NB 10.0
      &END
      !
      ! SPC water model
      IGNORE_MISSING_CRITICAL_PARAMS TRUE
      !
      &BOND
        ATOMS OT HT
        K      [nm^-2kjmol] 502080.0 
        R0     [nm] 0.09572
        KIND   G87
      &END BOND
      &BEND
        ATOMS      HT    OT    HT
        THETA0     [deg] 104.500 
        K          [rad^2kjmol] 627.600
        KIND   G87
      &END BEND
      !
    &END FORCEFIELD
    &POISSON
      &EWALD
        EWALD_TYPE spme
        ALPHA .44
        GMAX 36
        O_SPLINE 6
      &END EWALD
    &END POISSON
  &END MM
  &SUBSYS
    &CELL
      ABC 56.934   63.199   67.758
    &END CELL
    &TOPOLOGY
      COORD_FILE_NAME solvate.pdb
      COORDINATE pdb
      CONN_FILE_FORMAT psf
      CONN_FILE_NAME solvate.psf
    &END TOPOLOGY
    !
    &KIND CT2A
      ELEMENT C
    &END KIND
    !
    &KIND CAI
      ELEMENT C
    &END KIND
    !
    &PRINT
      &TOPOLOGY_INFO
         PSF_INFO
      &END
    &END
  &END SUBSYS
&END FORCE_EVAL

&GLOBAL
  PROJECT Cytochrome-C_md
  RUN_TYPE MD
&END GLOBAL

&EXT_RESTART
  RESTART_FILE_NAME Cytochrome-C_mini-1.restart
  RESTART_DEFAULT F
  RESTART_POS T
&END EXT_RESTART

&MOTION
  &MD
    ENSEMBLE NVT
    STEPS 1000
    TIMESTEP 0.01 # Decrease this value to avoid "GEOMETRY wrong or EMAX_SPLINE too small!"
    TEMPERATURE 298
    &THERMOSTAT
       REGION MASSIVE
       TYPE CSVR
       &CSVR
         TIMECON 100.
       &END
    &END
  &END MD
  !
  &PRINT
    &TRAJECTORY
      #FILENAME = trajectory.xyz
      FILENAME = Cytochrome-C_mini-md-nvt-1.xyz
      LOG_PRINT_KEY = TRUE
      &EACH
        MD = 100
      &END EACH
    &END TRAJECTORY
  &END PRINT
&END MOTION
