&FORCE_EVAL
  METHOD FIST
  &MM
    &FORCEFIELD
      #this assumes that you've downloaded and extracted the file as instructed
      parm_file_name toppar/par_all36m_prot.prm
      parmtype CHM
      &SPLINE
         EMAX_SPLINE 1.0 # default 0.5
         RCUT_NB 10.0
      &END
      !
      ! SPC water model
      IGNORE_MISSING_CRITICAL_PARAMS TRUE
      !
      &BOND
        ATOMS OT HT
        K      [nm^-2kjmol] 502080.0 
        R0     [nm] 0.09572
        KIND   G87
      &END BOND
      &BEND
        ATOMS      HT    OT    HT
        THETA0     [deg] 104.500 
        K          [rad^2kjmol] 627.600
        KIND   G87
      &END BEND
      !
    &END FORCEFIELD
    &POISSON
      &EWALD
        EWALD_TYPE spme
        ALPHA .44
        GMAX 36
        O_SPLINE 6
      &END EWALD
    &END POISSON
  &END MM
  &SUBSYS
    &CELL
      ABC 56.934   63.199   67.758
    &END CELL
    &TOPOLOGY
      COORD_FILE_NAME solvate.pdb
      COORDINATE pdb
      CONN_FILE_FORMAT psf
      CONN_FILE_NAME solvate.psf
    &END TOPOLOGY
    !
    &KIND CT2A
      ELEMENT C
    &END KIND
    !
    &KIND CAI
      ELEMENT C
    &END KIND
    !
  &END SUBSYS
&END FORCE_EVAL

&GLOBAL
  PROJECT Cytochrome-C_mini
  RUN_TYPE GEO_OPT
&END GLOBAL

&MOTION
  &GEO_OPT
    MINIMIZER LBFGS
    #just do 100 steps, 
    #we only want to remove bad contacts
    MAX_ITER 100
  &END
&END MOTION
