# This tests CIS, TDHF, TDDFT functionality at once
# by using a hybrid LDA, GGA, HF functional for
# spin restricted reference with symmetry on.

start tddft_h2o

echo

title "TDDFT H2O PBE0/6-31G**"

geometry
O     0.00000000     0.00000000     0.12982363
H     0.75933475     0.00000000    -0.46621158
H    -0.75933475     0.00000000    -0.46621158
end

basis
O library 6-31G**
H library 6-31G**
end

dft
xc pbe0
odft
end

tddft
 nroots 20
 singlet
 notriplet
 civecs
end

task tddft energy

dplot
   civecs tddft_h2o.civecs
   root 2
   LimitXYZ
   -2.0 2.0 25
   -2.0 2.0 25
   -2.0 2.0 25
   gaussian
   output root-2.cube
end

task dplot